LAMMPS (3 Mar 2020)

# Define temperature parameters
variable	temperature equal 300.0 			# Simulation temperature in Kelvin
variable	tempDamp equal 100.0 				# Relaxation time of themostat - 0.1 ps

# Define pressure parameters
variable	pressure equal 1.0 					# Pressure in bars
variable	pressureDamp equal 500.0 			# Relaxation time of the barostat 0.5 ps

# Define random seed
variable	seed equal 15674

# Simulation setup
units	real
atom_style full
variable	out_freq equal 100 					# Thermo output frequency
variable	out_freq2 equal 100 					# Dump output frequency
neigh_modify delay 10 every 1 				# Neighbor list setup
include in.nacl 									# Load initial configuration
### TIP4P/Ew and NaCl Potential Parameters ###
pair_style 	hybrid lj/cut/coul/long 5.0 buck/coul/long 5.0 # This cutoff is too short for a real calculation
# Load configuration
read_data       data.nacl
Reading data file ...
  orthogonal box = (0 0 0) to (15.5 15.5 15.5)
  1 by 1 by 1 MPI processor grid
  reading atoms ...
  320 atoms
  scanning bonds ...
  2 = max bonds/atom
  scanning angles ...
  1 = max angles/atom
  reading bonds ...
  212 bonds
  reading angles ...
  106 angles
Finding 1-2 1-3 1-4 neighbors ...
  special bond factors lj:   0          0          0         
  special bond factors coul: 0          0          0         
  2 = max # of 1-2 neighbors
  1 = max # of 1-3 neighbors
  1 = max # of 1-4 neighbors
  2 = max # of special neighbors
  special bonds CPU = 0.000225067 secs
  read_data CPU = 0.00546288 secs

### create groups ###

group hy type 1
212 atoms in group hy
group ox type 2
106 atoms in group ox
group na type 3
1 atoms in group na
group cl type 4
1 atoms in group cl

### set charges - beside manually ###
set group ox charge -0.830
Setting atom values ...
  106 settings made for charge
set group hy charge 0.415
Setting atom values ...
  212 settings made for charge
set group na charge 1.0
Setting atom values ...
  1 settings made for charge
set group cl charge -1.0
Setting atom values ...
  1 settings made for charge

# Water TIP3P
pair_coeff      1 1 lj/cut/coul/long 0.0 0.0
pair_coeff      2 2 lj/cut/coul/long 0.102 3.188
pair_coeff      1 2 lj/cut/coul/long 0.0 0.0
# Mixed from Pettitt 86
pair_coeff      2 3 lj/cut/coul/long 0.1338549 2.72
pair_coeff      1 3 lj/cut/coul/long 0.1338549 1.31
pair_coeff      2 4 lj/cut/coul/long 0.359825 3.55
pair_coeff      1 4 lj/cut/coul/long 0.359825 2.14
# NaCl from Pettitt 86
pair_coeff	3 4 buck/coul/long 28929.93 0.317 161.2016
pair_coeff	3 3 buck/coul/long 9772.847 0.317 24.18024 # This is not used
pair_coeff	4 4 buck/coul/long 80312.94 0.317 1683.981 # This is not used
bond_style      harmonic
bond_coeff      1 450 0.9572
angle_style     harmonic
angle_coeff     1 55 104.52
kspace_style    pppm 1e-2 # This value is too large for a real calculation
timestep	2.0 										# Timestep 2 fs
thermo ${out_freq}
thermo 100
thermo_style custom step temp pe ke etotal press lx ly lz xy xz yz
restart ${out_freq} restart restart2
restart 100 restart restart2

# Perform minimization
minimize 1.0e-2 1.0e-3 100 1000
WARNING: Using 'neigh_modify every 1 delay 0 check yes' setting during minimization (src/min.cpp:190)
PPPM initialization ...
  using 12-bit tables for long-range coulomb (src/kspace.cpp:332)
  G vector (1/distance) = 0.400236
  grid = 8 8 8
  stencil order = 5
  estimated absolute RMS force accuracy = 0.782336
  estimated relative force accuracy = 0.00235598
  using double precision KISS FFT
  3d grid and FFT values/proc = 3375 512
Neighbor list info ...
  update every 1 steps, delay 0 steps, check yes
  max neighbors/atom: 2000, page size: 100000
  master list distance cutoff = 7
  ghost atom cutoff = 7
  binsize = 3.5, bins = 5 5 5
  3 neighbor lists, perpetual/occasional/extra = 3 0 0
  (1) pair lj/cut/coul/long, perpetual, skip from (3)
      attributes: half, newton on
      pair build: skip
      stencil: none
      bin: none
  (2) pair buck/coul/long, perpetual, skip from (3)
      attributes: half, newton on
      pair build: skip
      stencil: none
      bin: none
  (3) neighbor class addition, perpetual
      attributes: half, newton on
      pair build: half/bin/newton
      stencil: half/bin/3d/newton
      bin: standard
Setting up cg style minimization ...
  Unit style    : real
  Current step  : 0
Per MPI rank memory allocation (min/avg/max) = 9.634 | 9.634 | 9.634 Mbytes
Step Temp PotEng KinEng TotEng Press Lx Ly Lz Xy Xz Yz 
       0            0    56622.859            0    56622.859    4161545.2         15.5         15.5         15.5            0            0            0 
      24            0   -1029.4768            0   -1029.4768   -3681.7293         15.5         15.5         15.5            0            0            0 
Loop time of 0.0369101 on 1 procs for 24 steps with 320 atoms

97.3% CPU use with 1 MPI tasks x no OpenMP threads

Minimization stats:
  Stopping criterion = energy tolerance
  Energy initial, next-to-last, final = 
         56622.8589421     -1021.14497855     -1029.47676686
  Force two-norm initial, final = 610444 81.1302
  Force max component initial, final = 373098 22.0559
  Final line search alpha, max atom move = 0.0014802 0.0326472
  Iterations, force evaluations = 24 27

MPI task timing breakdown:
Section |  min time  |  avg time  |  max time  |%varavg| %total
---------------------------------------------------------------
Pair    | 0.019093   | 0.019093   | 0.019093   |   0.0 | 51.73
Bond    | 0.00060964 | 0.00060964 | 0.00060964 |   0.0 |  1.65
Kspace  | 0.011166   | 0.011166   | 0.011166   |   0.0 | 30.25
Neigh   | 0.0045671  | 0.0045671  | 0.0045671  |   0.0 | 12.37
Comm    | 0.00060916 | 0.00060916 | 0.00060916 |   0.0 |  1.65
Output  | 0          | 0          | 0          |   0.0 |  0.00
Modify  | 0          | 0          | 0          |   0.0 |  0.00
Other   |            | 0.000865   |            |       |  2.34

Nlocal:    320 ave 320 max 320 min
Histogram: 1 0 0 0 0 0 0 0 0 0
Nghost:    1846 ave 1846 max 1846 min
Histogram: 1 0 0 0 0 0 0 0 0 0
Neighs:    19695 ave 19695 max 19695 min
Histogram: 1 0 0 0 0 0 0 0 0 0

Total # of neighbors = 19695
Ave neighs/atom = 61.5469
Ave special neighs/atom = 1.9875
Neighbor list builds = 3
Dangerous builds = 0

# Write trajectory to file
dump           	myDump all dcd ${out_freq2} out.dcd
dump           	myDump all dcd 100 out.dcd
dump_modify    	myDump unwrap yes

# Start simulation
reset_timestep 	0

fix             1 all temp/csvr ${temperature} ${temperature} ${tempDamp} ${seed} # Bussi's thermostat
fix             1 all temp/csvr 300 ${temperature} ${tempDamp} ${seed} 
fix             1 all temp/csvr 300 300 ${tempDamp} ${seed} 
fix             1 all temp/csvr 300 300 100 ${seed} 
fix             1 all temp/csvr 300 300 100 15674 
fix             2 all shake 0.0001 20 100000 t 1 2 # Shake algorithm
Finding SHAKE clusters ...
  0 = # of size 2 clusters
  106 = # of size 3 clusters
  0 = # of size 4 clusters
  0 = # of frozen angles
  find clusters CPU = 0.000164032 secs
fix             3 all nph iso ${pressure} ${pressure} ${pressureDamp} # Isotropic barostat
fix             3 all nph iso 1 ${pressure} ${pressureDamp} 
fix             3 all nph iso 1 1 ${pressureDamp} 
fix             3 all nph iso 1 1 500 
fix 				 4 all momentum 10000 linear 1 1 1 # Set total linear momentum to zero every 10000 steps

velocity        all create ${temperature} ${seed} dist gaussian
velocity        all create 300 ${seed} dist gaussian
velocity        all create 300 15674 dist gaussian

run             500000 # 1 ns
PPPM initialization ...
  using 12-bit tables for long-range coulomb (src/kspace.cpp:332)
  G vector (1/distance) = 0.400236
  grid = 8 8 8
  stencil order = 5
  estimated absolute RMS force accuracy = 0.782336
  estimated relative force accuracy = 0.00235598
  using double precision KISS FFT
  3d grid and FFT values/proc = 3375 512
Neighbor list info ...
  update every 1 steps, delay 10 steps, check yes
  max neighbors/atom: 2000, page size: 100000
  master list distance cutoff = 7
  ghost atom cutoff = 7
  binsize = 3.5, bins = 5 5 5
  3 neighbor lists, perpetual/occasional/extra = 3 0 0
  (1) pair lj/cut/coul/long, perpetual, skip from (3)
      attributes: half, newton on
      pair build: skip
      stencil: none
      bin: none
  (2) pair buck/coul/long, perpetual, skip from (3)
      attributes: half, newton on
      pair build: skip
      stencil: none
      bin: none
  (3) neighbor class addition, perpetual
      attributes: half, newton on
      pair build: half/bin/newton
      stencil: half/bin/3d/newton
      bin: standard
Setting up Verlet run ...
  Unit style    : real
  Current step  : 0
  Time step     : 2
SHAKE stats (type/ave/delta) on step 0
  1 0.972003 0.054945 636
Per MPI rank memory allocation (min/avg/max) = 9.406 | 9.406 | 9.406 Mbytes
Step Temp PotEng KinEng TotEng Press Lx Ly Lz Xy Xz Yz 
       0          300    -1058.173    222.07035   -836.10269    913.91707         15.5         15.5         15.5            0            0            0 
     100    321.86763   -1095.2378    238.25752   -856.98027     1659.978    15.351381    15.351381    15.351381            0            0            0 
     200     327.5324   -1118.0056    242.45078   -875.55482    -2118.396    15.640379    15.640379    15.640379            0            0            0 
     300      303.587   -1107.9572    224.72557   -883.23159    223.73795    15.583711    15.583711    15.583711            0            0            0 
     400    329.16612   -1121.8438    243.66012   -878.18364    642.66199     15.45443     15.45443     15.45443            0            0            0 
     500     350.7017   -1135.8851    259.60149   -876.28358   -1969.1597    15.470001    15.470001    15.470001            0            0            0 
     600    324.44566   -1137.6035    240.16587   -897.43763   -660.24222    15.445227    15.445227    15.445227            0            0            0 
     700    312.02075   -1149.8103    230.96852   -918.84176    1720.1635    15.306761    15.306761    15.306761            0            0            0 
     800    281.48355   -1154.1869    208.36384   -945.82305   -384.44586    15.357537    15.357537    15.357537            0            0            0 
     900    298.12215   -1203.1707     220.6803   -982.49041   -445.44626    15.234993    15.234993    15.234993            0            0            0 
    1000    268.27492   -1200.1765    198.58635   -1001.5902   -47.998327    15.097924    15.097924    15.097924            0            0            0 
    1100    276.10462   -1200.6431    204.38216   -996.26095   -729.91209    15.172199    15.172199    15.172199            0            0            0 
    1200    316.98361    -1190.138     234.6422    -955.4958    -489.5422    15.235051    15.235051    15.235051            0            0            0 
    1300    315.76593   -1179.0451    233.74084   -945.30423   -1083.4014    15.257628    15.257628    15.257628            0            0            0 
    1400    301.16526   -1171.0524    222.93291   -948.11952    1253.7873    15.084424    15.084424    15.084424            0            0            0 
    1500    284.31283   -1153.8552    210.45817   -943.39708   -2030.5317    15.432951    15.432951    15.432951            0            0            0 
    1600    309.81476   -1166.6232    229.33557   -937.28762    656.53363    15.323161    15.323161    15.323161            0            0            0 
    1700    330.47586   -1125.6321    244.62963   -881.00248   -1594.5084    15.523545    15.523545    15.523545            0            0            0 
    1800    313.91175    -1171.504     232.3683   -939.13566   -1994.2654    15.517715    15.517715    15.517715            0            0            0 
    1900    295.35429   -1171.4051    218.63144   -952.77365   -664.46623    15.353002    15.353002    15.353002            0            0            0 
    2000    283.19147   -1161.6762     209.6281   -952.04809    1411.6704    15.231682    15.231682    15.231682            0            0            0 
    2100    299.20956    -1178.637    221.48523   -957.15178   -1062.9644    15.372361    15.372361    15.372361            0            0            0 
    2200    290.35809   -1190.5449    214.93307   -975.61184    1726.0114    15.248423    15.248423    15.248423            0            0            0 
    2300    328.38082   -1214.4753    243.07881   -971.39646    1182.4358    15.314111    15.314111    15.314111            0            0            0 
    2400    289.33869   -1184.1122    214.17848   -969.93369    -473.2742    15.365554    15.365554    15.365554            0            0            0 
    2500    299.59039   -1211.1904    221.76714   -989.42322   -276.17158    15.193211    15.193211    15.193211            0            0            0 
    2600     302.8553   -1218.4206    224.18394   -994.23665    87.092999     15.26492     15.26492     15.26492            0            0            0 
    2700     315.7433   -1193.3967    233.72409   -959.67263   -1761.9765    15.361736    15.361736    15.361736            0            0            0 
    2800    282.11648   -1193.0229    208.83235   -984.19056    710.65548    15.198345    15.198345    15.198345            0            0            0 
    2900    289.49523   -1183.0134    214.29436   -968.71908    1323.4711    15.050492    15.050492    15.050492            0            0            0 
    3000    313.74268   -1170.2848    232.24315   -938.04161   -1686.6302    15.227759    15.227759    15.227759            0            0            0 
    3100    296.45719   -1181.1582    219.44783   -961.71039   -794.43341    15.388303    15.388303    15.388303            0            0            0 
    3200    291.94847   -1185.2861    216.11033   -969.17578   -40.312179    15.215088    15.215088    15.215088            0            0            0 
    3300    300.00085   -1214.8284    222.07098   -992.75745    1267.1149    14.996857    14.996857    14.996857            0            0            0 
    3400    278.70228   -1188.2325    206.30504   -981.92749    1515.8725    15.123063    15.123063    15.123063            0            0            0 
    3500     286.6264   -1198.7756    212.17075   -986.60485   -2246.8359    15.246963    15.246963    15.246963            0            0            0 
    3600    327.47859   -1218.3417    242.41095   -975.93079    1764.5036    14.924173    14.924173    14.924173            0            0            0 
    3700    298.08307   -1192.4648    220.65137   -971.81347      1243.04     14.97626     14.97626     14.97626            0            0            0 
    3800     288.2267   -1211.8365    213.35535   -998.48119    234.75184    14.928473    14.928473    14.928473            0            0            0 
    3900    309.77261   -1215.0445    229.30437   -985.74013    560.86935     14.88287     14.88287     14.88287            0            0            0 
    4000    297.45238   -1228.0856    220.18451   -1007.9011    -26.04418    14.961626    14.961626    14.961626            0            0            0 
    4100    311.44869   -1188.4662    230.54506    -957.9211   -1552.1832    15.208296    15.208296    15.208296            0            0            0 
    4200    295.97909   -1202.2368    219.09393   -983.14283   -697.30827    15.186391    15.186391    15.186391            0            0            0 
    4300    303.34158   -1214.3508     224.5439   -989.80693    835.59807    15.073835    15.073835    15.073835            0            0            0 
    4400    290.83481   -1213.7333    215.28596   -998.44732     1283.355     14.99997     14.99997     14.99997            0            0            0 
    4500    304.70441   -1219.0318    225.55272    -993.4791    2837.8238    14.903546    14.903546    14.903546            0            0            0 
    4600    292.12666   -1209.1848    216.24223    -992.9426     518.0819    15.075831    15.075831    15.075831            0            0            0 
    4700    318.18648   -1202.9675    235.53261   -967.43484   -1629.0175    15.115979    15.115979    15.115979            0            0            0 
    4800    288.81492   -1206.5464    213.79077   -992.75562    581.10638    14.924114    14.924114    14.924114            0            0            0 
    4900    295.98187    -1202.152    219.09599   -983.05601    2.0343293    14.955917    14.955917    14.955917            0            0            0 
    5000    310.09784     -1202.56    229.54512   -973.01485   -871.68153    14.986858    14.986858    14.986858            0            0            0 
    5100    306.24675   -1168.9297    226.69441   -942.23525   -539.05512    15.113402    15.113402    15.113402            0            0            0 
    5200    322.27675   -1196.6063    238.56037   -958.04594   -539.26514    15.094929    15.094929    15.094929            0            0            0 
    5300    289.33952   -1218.7636     214.1791   -1004.5845   -238.18646    15.060063    15.060063    15.060063            0            0            0 
    5400    295.75873   -1190.7606    218.93081   -971.82983   -114.01314    15.075698    15.075698    15.075698            0            0            0 
    5500    298.12286   -1187.8358    220.68082     -967.155   -103.61777    14.969342    14.969342    14.969342            0            0            0 
    5600    302.83962   -1199.6628    224.17233    -975.4905    905.45183    14.764689    14.764689    14.764689            0            0            0 
    5700    318.74341   -1187.4475    235.94486   -951.50267    295.80955    14.892595    14.892595    14.892595            0            0            0 
    5800    316.12365    -1167.779    234.00563   -933.77336   -986.57899     15.00514     15.00514     15.00514            0            0            0 
    5900    294.97023   -1179.1105    218.34714   -960.76332   -781.58124    14.949351    14.949351    14.949351            0            0            0 
    6000    296.50436   -1178.3017    219.48276   -958.81893   -181.02489    15.036277    15.036277    15.036277            0            0            0 
    6100    317.33271   -1184.0064    234.90062   -949.10581    1911.2515    14.982037    14.982037    14.982037            0            0            0 
    6200    318.38076   -1202.6001    235.67642   -966.92364   -1629.1479    15.097709    15.097709    15.097709            0            0            0 
    6300    279.93471   -1218.7862    207.21733   -1011.5689    1813.0375    15.039273    15.039273    15.039273            0            0            0 
    6400    263.73448   -1199.8551    195.22536   -1004.6298   -868.44781    15.227963    15.227963    15.227963            0            0            0 
    6500    287.65322   -1189.0147    212.93084    -976.0839    290.35566    15.060909    15.060909    15.060909            0            0            0 
    6600    290.96184   -1205.8078    215.37999   -990.42776    397.08933    15.066868    15.066868    15.066868            0            0            0 
    6700     297.5848   -1193.7312    220.28253   -973.44869   -1481.7676    15.148222    15.148222    15.148222            0            0            0 
    6800    301.01994   -1193.8882    222.82534   -971.06283   -1643.3355    15.194014    15.194014    15.194014            0            0            0 
    6900    322.73502   -1187.9662     238.8996   -949.06661    2944.0167    14.999822    14.999822    14.999822            0            0            0 
    7000    297.28333   -1178.5521    220.05938   -958.49277    2841.1243    14.921637    14.921637    14.921637            0            0            0 
    7100    285.68319   -1188.4038    211.47255   -976.93125   -1516.2358     15.18776     15.18776     15.18776            0            0            0 
    7200     309.8418    -1224.925    229.35559   -995.56943    842.46139    14.890634    14.890634    14.890634            0            0            0 
    7300    289.71479    -1193.021    214.45688   -978.56417   -2096.2702    14.928596    14.928596    14.928596            0            0            0 
    7400    323.77353    -1215.412    239.66834    -975.7437    285.52646    14.819245    14.819245    14.819245            0            0            0 
    7500    320.29278   -1198.6832    237.09177   -961.59139   -680.21494     14.94169     14.94169     14.94169            0            0            0 
    7600    307.35003   -1205.6758    227.51109   -978.16471    573.01247    14.844883    14.844883    14.844883            0            0            0 
    7700    285.31308    -1180.064    211.19858   -968.86539   -2112.5333    15.025831    15.025831    15.025831            0            0            0 
    7800     324.5539   -1199.3972      240.246   -959.15124   -486.62463    14.938592    14.938592    14.938592            0            0            0 
    7900    285.42582   -1176.0537    211.28204    -964.7717     1741.891    14.867722    14.867722    14.867722            0            0            0 
    8000    309.68406   -1212.7419    229.23883   -983.50303   -3057.8269    15.044833    15.044833    15.044833            0            0            0 
    8100    287.95734   -1220.7924    213.15596   -1007.6364    1475.4658    14.739031    14.739031    14.739031            0            0            0 
    8200    291.31658   -1212.9964    215.64258    -997.3538   -2804.5783    14.922215    14.922215    14.922215            0            0            0 
    8300    327.30013   -1208.1162    242.27884    -965.8374   -113.10034    14.814424    14.814424    14.814424            0            0            0 
    8400     322.0576   -1219.6915    238.39814    -981.2934    2074.2877    14.697183    14.697183    14.697183            0            0            0 
    8500    312.43508   -1256.3508    231.27522   -1025.0755   -262.19169    14.864163    14.864163    14.864163            0            0            0 
    8600    278.42801   -1222.5348    206.10202   -1016.4328   -610.99719    14.987153    14.987153    14.987153            0            0            0 
    8700    293.08488   -1217.2934    216.95154   -1000.3418   -97.019487    14.882494    14.882494    14.882494            0            0            0 
    8800    284.35097   -1206.1377     210.4864   -995.65132   -412.82094    15.018371    15.018371    15.018371            0            0            0 
    8900    284.91636   -1178.3577    210.90492    -967.4528   -264.48679    15.150931    15.150931    15.150931            0            0            0 
    9000    281.72091    -1186.006    208.53953   -977.46642    693.90287    14.993418    14.993418    14.993418            0            0            0 
    9100    309.39414   -1203.8616    229.02421   -974.83737   -1543.2658    15.085114    15.085114    15.085114            0            0            0 
    9200    294.83267   -1237.3964    218.24532    -1019.151    889.05786     14.81434     14.81434     14.81434            0            0            0 
    9300    303.50978   -1222.1769    224.66841    -997.5085     256.0401    14.767748    14.767748    14.767748            0            0            0 
    9400    272.66733   -1214.2893    201.83777   -1012.4516    787.17036    14.793686    14.793686    14.793686            0            0            0 
    9500    301.35821   -1244.5995    223.07574   -1021.5237    789.47528     14.71237     14.71237     14.71237            0            0            0 
    9600    273.06171   -1191.3889     202.1297   -989.25924    1278.1658    14.906487    14.906487    14.906487            0            0            0 
    9700    309.32348   -1208.8821    228.97191   -979.91021   -2035.5055    15.082312    15.082312    15.082312            0            0            0 
    9800    308.23493   -1199.3809    228.16613   -971.21479    2174.8107    15.020834    15.020834    15.020834            0            0            0 
    9900    312.95903    -1206.667    231.66307   -975.00388    -1101.619    15.287732    15.287732    15.287732            0            0            0 
   10000    279.47874   -1203.3501     206.8798   -996.47029    3068.1616    15.063937    15.063937    15.063937            0            0            0 
   10100    285.91839   -1207.2008    211.64666    -995.5541    418.00935     15.07852     15.07852     15.07852            0            0            0 
   10200     304.9376   -1192.4312    225.72533   -966.70583   -296.20053    15.184257    15.184257    15.184257            0            0            0 
   10300    297.71498   -1193.8225     220.3789   -973.44363   -961.30253    15.181374    15.181374    15.181374            0            0            0 
   10400    301.68392   -1204.5676    223.31684   -981.25072   -244.40046    15.032867    15.032867    15.032867            0            0            0 
   10500    299.12682   -1219.5599    221.42399   -998.13592   -884.04402    15.118906    15.118906    15.118906            0            0            0 
   10600    297.78147   -1202.1942    220.42812   -981.76607   -636.79603    15.121717    15.121717    15.121717            0            0            0 
   10700    279.25602   -1193.9979    206.71494     -987.283    1155.4451    15.151419    15.151419    15.151419            0            0            0 
   10800    302.69864   -1204.4428    224.06798   -980.37479    1847.2107    15.023649    15.023649    15.023649            0            0            0 
   10900    313.96903   -1182.8688    232.41071    -950.4581    431.86502    15.004066    15.004066    15.004066            0            0            0 
   11000    280.79732   -1190.8808    207.85586   -983.02498   -918.30876    15.139097    15.139097    15.139097            0            0            0 
   11100    301.70491   -1184.0698    223.33238   -960.73744    2567.6615      15.0313      15.0313      15.0313            0            0            0 
   11200    315.19887   -1199.3807    233.32108   -966.05961   -101.98376    15.048897    15.048897    15.048897            0            0            0 
   11300    272.47614   -1193.0382    201.69624   -991.34199   -1208.0631    14.929824    14.929824    14.929824            0            0            0 
   11400    280.99822    -1186.418    208.00457   -978.41339    333.42863    14.880785    14.880785    14.880785            0            0            0 
   11500    297.76088   -1208.6001    220.41287   -988.18722    -1058.587    15.114521    15.114521    15.114521            0            0            0 
   11600    311.16547   -1217.0188    230.33541   -986.68335    2087.8296    15.039893    15.039893    15.039893            0            0            0 
   11700    269.75154   -1192.8227    199.67939   -993.14328   -1614.5818     15.18263     15.18263     15.18263            0            0            0 
   11800    279.68101   -1194.4708    207.02953   -987.44125    103.62433    14.898548    14.898548    14.898548            0            0            0 
   11900    290.77401   -1226.1071    215.24096   -1010.8661     -762.267    14.794037    14.794037    14.794037            0            0            0 
   12000    240.29201   -1198.3605    177.87244   -1020.4881    39.229294    14.917398    14.917398    14.917398            0            0            0 
   12100    280.43992   -1212.4385     207.5913   -1004.8472    361.99186     14.83684     14.83684     14.83684            0            0            0 
   12200    287.72154   -1213.5377    212.98141   -1000.5563   -1212.8055    14.765948    14.765948    14.765948            0            0            0 
   12300    271.81143   -1205.2188     201.2042   -1004.0146   -625.92712    14.712254    14.712254    14.712254            0            0            0 
   12400    283.02798   -1209.2878    209.50707   -999.78069   -349.15265    14.863207    14.863207    14.863207            0            0            0 
   12500    304.85693   -1207.5808    225.66561   -981.91517    289.04584    14.963664    14.963664    14.963664            0            0            0 
   12600     302.9478   -1193.0403    224.25241   -968.78789   -677.15523    14.882964    14.882964    14.882964            0            0            0 
   12700    296.62797   -1189.9719    219.57426   -970.39762     1275.458    14.821016    14.821016    14.821016            0            0            0 
   12800    296.47165   -1191.7188    219.45854   -972.26025    694.50593    15.039838    15.039838    15.039838            0            0            0 
   12900    329.55956   -1228.1323    243.95135   -984.18094    689.61134    14.969698    14.969698    14.969698            0            0            0 
   13000    321.01999   -1209.1179    237.63007   -971.48779   -1210.0745    15.027051    15.027051    15.027051            0            0            0 
   13100    288.59632   -1181.3964    213.62895   -967.76749   -386.00313    14.992615    14.992615    14.992615            0            0            0 
   13200    305.25003   -1194.7888     225.9566   -968.83215   -277.76485    14.982221    14.982221    14.982221            0            0            0 
   13300    328.35906   -1223.0727     243.0627   -980.00996    -203.8592    14.927306    14.927306    14.927306            0            0            0 
   13400    324.37933   -1215.0303    240.11677   -974.91353   -217.77487    14.892535    14.892535    14.892535            0            0            0 
   13500    296.59126   -1236.6319    219.54708   -1017.0848    342.21466    14.801012    14.801012    14.801012            0            0            0 
   13600    308.62515   -1224.2797    228.45498   -995.82473   -1146.6466    14.893057    14.893057    14.893057            0            0            0 
   13700    315.65483   -1244.2956    233.65859    -1010.637    31.763925     14.87323     14.87323     14.87323            0            0            0 
   13800    305.00715   -1230.6424    225.77682   -1004.8656    3132.1065    14.808736    14.808736    14.808736            0            0            0 
   13900    301.83688   -1204.3589    223.43007   -980.92884    -1614.229     15.11476     15.11476     15.11476            0            0            0 
   14000    308.41602     -1215.57    228.30018    -987.2698    1357.3935    15.001473    15.001473    15.001473            0            0            0 
   14100    309.39944   -1190.8803    229.02814   -961.85218    76.297316     15.20348     15.20348     15.20348            0            0            0 
   14200    289.66034   -1200.3632    214.41658   -985.94662    430.78407    15.130878    15.130878    15.130878            0            0            0 
   14300    276.65394   -1210.5116    204.78879   -1005.7228     986.6034    14.984131    14.984131    14.984131            0            0            0 
   14400    299.74716   -1208.7664    221.88319   -986.88323    856.59654    14.844136    14.844136    14.844136            0            0            0 
   14500    299.49336   -1209.2085    221.69531   -987.51315   -515.60642    14.857493    14.857493    14.857493            0            0            0 
   14600    299.66539   -1229.9427    221.82266     -1008.12    2391.9521    14.763637    14.763637    14.763637            0            0            0 
   14700    269.19414   -1213.5002    199.26679   -1014.2334   -814.74717    14.888869    14.888869    14.888869            0            0            0 
   14800    303.42446   -1232.0448    224.60525   -1007.4396   -1047.7806    14.835238    14.835238    14.835238            0            0            0 
   14900    290.05166   -1210.0303    214.70624   -995.32402    729.20324    14.742303    14.742303    14.742303            0            0            0 
   15000    317.47593   -1210.4398    235.00664   -975.43317   -572.83335    14.840244    14.840244    14.840244            0            0            0 
   15100    324.74704   -1217.7463    240.38896   -977.35739    1705.4447     14.80617     14.80617     14.80617            0            0            0 
   15200    318.88334   -1198.7517    236.04845   -962.70328   -2724.0606    15.074152    15.074152    15.074152            0            0            0 
   15300    316.91078   -1207.5488    234.58829   -972.96056    1035.3244    14.759538    14.759538    14.759538            0            0            0 
   15400    313.54194   -1220.0826    232.09456   -987.98801    842.05743    14.823437    14.823437    14.823437            0            0            0 
   15500    300.89693   -1210.9016    222.73429   -988.16732    368.34196    14.949856    14.949856    14.949856            0            0            0 
   15600    301.92845   -1229.1975    223.49785   -1005.6997   -1687.0738    14.987584    14.987584    14.987584            0            0            0 
   15700    307.42006   -1245.5635    227.56294   -1018.0005    436.58305    14.888466    14.888466    14.888466            0            0            0 
   15800    274.17697   -1198.9897    202.95525    -996.0345    341.93153    15.002722    15.002722    15.002722            0            0            0 
   15900    291.64576   -1219.0106    215.88625   -1003.1244    1743.2382    14.866009    14.866009    14.866009            0            0            0 
   16000    302.77481   -1235.4218    224.12436   -1011.2975   -2100.0098      15.0849      15.0849      15.0849            0            0            0 
   16100    299.66795   -1227.0555    221.82455   -1005.2309    1546.7667    14.928064    14.928064    14.928064            0            0            0 
   16200    289.68644    -1202.411     214.4359    -987.9751   -1994.8149     15.29785     15.29785     15.29785            0            0            0 
   16300    295.69645   -1205.5936    218.88471   -986.70889   -158.18696    15.093538    15.093538    15.093538            0            0            0 
   16400     290.1124   -1219.1572     214.7512    -1004.406   -1971.2096    15.073074    15.073074    15.073074            0            0            0 
   16500    314.71439   -1231.1414    232.96245   -998.17898   -505.45788     14.98082     14.98082     14.98082            0            0            0 
   16600    262.05486     -1235.43    193.98205   -1041.4479    461.33666    14.873079    14.873079    14.873079            0            0            0 
   16700    289.65588   -1225.7271    214.41328   -1011.3139   -332.81297    14.871093    14.871093    14.871093            0            0            0 
   16800    290.93424   -1244.7439    215.35956   -1029.3844   -2130.8664    14.874467    14.874467    14.874467            0            0            0 
   16900    289.26262   -1247.2523    214.12217   -1033.1302    1330.9541    14.825167    14.825167    14.825167            0            0            0 
   17000    304.38174   -1188.8649    225.31386   -963.55106    1903.4153    14.846164    14.846164    14.846164            0            0            0 
   17100     317.5816   -1213.8446    235.08485   -978.75971   -501.08004    14.849632    14.849632    14.849632            0            0            0 
   17200    309.71133   -1189.2985    229.25901   -960.03952   -1621.8752    14.982731    14.982731    14.982731            0            0            0 
   17300    308.22555     -1213.67    228.15918   -985.51082    2125.2254    14.932165    14.932165    14.932165            0            0            0 
   17400    316.66146   -1193.6503    234.40374   -959.24661    758.99807    15.095443    15.095443    15.095443            0            0            0 
   17500    285.63424   -1185.5771    211.43632   -974.14083   -508.00078     15.26239     15.26239     15.26239            0            0            0 
   17600    283.68747   -1174.9951    209.99525   -964.99986    678.86043    15.041931    15.041931    15.041931            0            0            0 
   17700    288.86091   -1211.1514    213.82481   -997.32654   -1307.9744    14.981728    14.981728    14.981728            0            0            0 
   17800    291.28031   -1217.0668    215.61573   -1001.4511   -903.64894    15.047705    15.047705    15.047705            0            0            0 
   17900     269.6183   -1208.6848    199.58077    -1009.104   -1537.3624    15.117046    15.117046    15.117046            0            0            0 
   18000    296.45044   -1222.6657    219.44284   -1003.2228   -217.47832    14.912371    14.912371    14.912371            0            0            0 
   18100     292.3097   -1214.2787    216.37772   -997.90093   -966.79107    15.007701    15.007701    15.007701            0            0            0 
   18200    310.83846   -1228.4078    230.09335   -998.31444    1615.8988    14.809549    14.809549    14.809549            0            0            0 
   18300    290.72548   -1196.2329    215.20503   -981.02783   -1985.0049    15.004998    15.004998    15.004998            0            0            0 
   18400    294.20951   -1202.5797    217.78403   -984.79566   -812.14267    14.940313    14.940313    14.940313            0            0            0 
   18500    310.20803   -1194.0471    229.62669   -964.42042    903.42113    14.982619    14.982619    14.982619            0            0            0 
   18600    298.61962   -1200.5003    221.04854   -979.45179     1523.969    15.002149    15.002149    15.002149            0            0            0 
   18700    288.01553   -1195.9083    213.19903    -982.7093   -1500.6444    15.032795    15.032795    15.032795            0            0            0 
   18800     304.2456   -1200.0582    225.21309   -974.84516   -356.30175    14.992345    14.992345    14.992345            0            0            0 
   18900    294.37684   -1211.0413    217.90789   -993.13341   -838.98158    15.028551    15.028551    15.028551            0            0            0 
   19000    301.58478   -1211.0229    223.24346   -987.77945   -724.91911    14.904901    14.904901    14.904901            0            0            0 
   19100    281.38946   -1208.4195    208.29418   -1000.1253    367.84456    14.835926    14.835926    14.835926            0            0            0 
   19200    293.90407   -1216.7405    217.55793   -999.18255   -2300.6993    14.998535    14.998535    14.998535            0            0            0 
   19300      276.528   -1207.3113    204.69556   -1002.6158    1340.5208    14.862501    14.862501    14.862501            0            0            0 
   19400    318.98966   -1218.7881    236.12715    -982.6609   -1877.6293    14.990812    14.990812    14.990812            0            0            0 
   19500    313.04985   -1202.6349     231.7303   -970.90457    1488.3681    14.999279    14.999279    14.999279            0            0            0 
   19600    293.73898   -1211.7433    217.43573    -994.3076   -5.2775144    15.074695    15.074695    15.074695            0            0            0 
   19700    294.24576   -1190.1129    217.81086   -972.30205    1181.9532    15.061731    15.061731    15.061731            0            0            0 
   19800    271.25038   -1191.5367    200.78889   -990.74784    -892.6623    15.159742    15.159742    15.159742            0            0            0 
   19900    288.31586   -1226.3932    213.42134   -1012.9718       1115.3    14.883362    14.883362    14.883362            0            0            0 
   20000    275.65659   -1226.4317    204.05052   -1022.3812   -156.75524    14.992552    14.992552    14.992552            0            0            0 
   20100    287.06188   -1229.0094    212.49311   -1016.5163    446.12061    15.009152    15.009152    15.009152            0            0            0 
   20200    307.00979   -1215.7257    227.25923   -988.46643    525.90792    14.848414    14.848414    14.848414            0            0            0 
   20300    296.07579   -1215.4079    219.16551   -996.24234   -3306.1989    14.977469    14.977469    14.977469            0            0            0 
   20400    305.52082   -1227.6439    226.15705   -1001.4868    1108.5317    14.884849    14.884849    14.884849            0            0            0 
   20500    316.36589   -1202.4287    234.18495   -968.24376   -1224.4027    15.047071    15.047071    15.047071            0            0            0 
   20600    311.58411   -1229.0041    230.64531   -998.35881   -748.13066    15.069262    15.069262    15.069262            0            0            0 
   20700    292.55597   -1214.2376    216.56002   -997.67756   -2009.6664    15.105871    15.105871    15.105871            0            0            0 
   20800    300.41689   -1232.4218    222.37895   -1010.0428    1221.6649     14.98593     14.98593     14.98593            0            0            0 
   20900      292.066   -1213.6666    216.19733   -997.46932    -463.0687    15.196374    15.196374    15.196374            0            0            0 
   21000     299.3345   -1212.4906    221.57773   -990.91291    8.4134968    15.039729    15.039729    15.039729            0            0            0 
   21100    307.14492   -1228.6849    227.35926   -1001.3256    903.10705    14.949295    14.949295    14.949295            0            0            0 
   21200    284.72886   -1229.0083    210.76613   -1018.2421    1711.3928     15.03788     15.03788     15.03788            0            0            0 
   21300    326.66948   -1222.3382    241.81201   -980.52622    100.54612     15.08643     15.08643     15.08643            0            0            0 
   21400    317.06206   -1201.4414    234.70027   -966.74113   -1840.8939    15.176887    15.176887    15.176887            0            0            0 
   21500    320.54338   -1199.2902    237.27727   -962.01294    1809.7886    14.996185    14.996185    14.996185            0            0            0 
   21600    303.88264   -1192.9739    224.94441   -968.02948   -462.07875    15.210935    15.210935    15.210935            0            0            0 
   21700    290.84211   -1174.0295    215.29137   -958.73811   -991.71936    15.393001    15.393001    15.393001            0            0            0 
   21800    311.81992   -1191.6725    230.81986    -960.8526    3069.4799    15.152762    15.152762    15.152762            0            0            0 
   21900    305.25129    -1217.534    225.95753   -991.57644   -25.712982    15.234831    15.234831    15.234831            0            0            0 
   22000     301.1218   -1205.3099    222.90074   -982.40921    911.91768    15.207944    15.207944    15.207944            0            0            0 
   22100    282.50864    -1190.875    209.12264    -981.7524   -852.85611    15.292305    15.292305    15.292305            0            0            0 
   22200    293.56071   -1177.9786    217.30376    -960.6748   -276.54609    15.209255    15.209255    15.209255            0            0            0 
   22300     310.8499   -1228.8894    230.10182   -998.78756    732.31752    15.180472    15.180472    15.180472            0            0            0 
   22400    303.32831   -1219.9614    224.53408   -995.42731   -2472.3737    15.381601    15.381601    15.381601            0            0            0 
   22500    286.24614   -1206.3351    211.88927   -994.44586    1162.5176    15.147989    15.147989    15.147989            0            0            0 
   22600    281.47895   -1202.5666    208.36043   -994.20616   -53.019286    15.031139    15.031139    15.031139            0            0            0 
   22700    304.76794   -1214.2287    225.59974   -988.62894     18.63274    14.948211    14.948211    14.948211            0            0            0 
   22800    303.66783   -1193.3099     224.7854   -968.52447    210.69325     15.06181     15.06181     15.06181            0            0            0 
   22900    325.15039   -1161.7149    240.68753   -921.02741    175.48568    15.165036    15.165036    15.165036            0            0            0 
   23000    310.43902   -1184.1185    229.79767   -954.32086    1709.8908    14.976984    14.976984    14.976984            0            0            0 
   23100    291.23317   -1189.2268    215.58084   -973.64599    733.41193    14.837955    14.837955    14.837955            0            0            0 
   23200    301.30474   -1211.3814    223.03616   -988.34521   -2476.1297    15.064039    15.064039    15.064039            0            0            0 
   23300    295.86034   -1193.5278    219.00603   -974.52178    1295.2912    14.861259    14.861259    14.861259            0            0            0 
   23400    303.86649   -1200.4968    224.93246    -975.5643    280.56062    14.882882    14.882882    14.882882            0            0            0 
   23500    325.94928   -1198.0989     241.2789   -956.81998    661.24632    14.922328    14.922328    14.922328            0            0            0 
   23600    303.26616   -1202.8805    224.48807   -978.39246    1044.2847    14.913999    14.913999    14.913999            0            0            0 
   23700    319.01975   -1216.7152    236.14942   -980.56574   -385.69876    15.059713    15.059713    15.059713            0            0            0 
   23800    302.59454   -1194.5323    223.99092    -970.5414   -617.07985    15.237564    15.237564    15.237564            0            0            0 
   23900    301.74526   -1204.9955    223.36225    -981.6332    473.76312    15.253076    15.253076    15.253076            0            0            0 
   24000    271.18963   -1205.5853    200.74392   -1004.8414    1697.1343     15.10876     15.10876     15.10876            0            0            0 
   24100    299.24066   -1207.5357    221.50826   -986.02749   -1273.3377    15.182682    15.182682    15.182682            0            0            0 
   24200    312.09623   -1207.9137    231.02439   -976.88935    1816.5502    14.872542    14.872542    14.872542            0            0            0 
   24300    297.01893   -1190.5022    219.86366   -970.63854   -1446.2325    15.101234    15.101234    15.101234            0            0            0 
   24400    303.45662    -1182.392    224.62906    -957.7629   -935.32789    15.155209    15.155209    15.155209            0            0            0 
   24500    292.63682   -1189.0872    216.61987   -972.46732    3797.7551    14.865232    14.865232    14.865232            0            0            0 
   24600    269.92159   -1202.0862    199.80527    -1002.281   -1651.5926    15.178622    15.178622    15.178622            0            0            0 
   24700    323.46934    -1204.985    239.44317   -965.54179   -1010.1426    15.104129    15.104129    15.104129            0            0            0 
   24800    305.98772   -1213.4153    226.50267   -986.91261    1724.5932     14.98191     14.98191     14.98191            0            0            0 
   24900    310.06603   -1191.0481    229.52157   -961.52656   -365.31136    15.209768    15.209768    15.209768            0            0            0 
   25000    268.89836   -1189.8612    199.04784   -990.81335    -262.9634    15.117528    15.117528    15.117528            0            0            0 
   25100    327.59851    -1231.099    242.49972   -988.59927   -1370.7388    15.038485    15.038485    15.038485            0            0            0 
   25200    267.47562   -1202.1662    197.99468   -1004.1715   -1654.0083    15.181284    15.181284    15.181284            0            0            0 
   25300    323.48623   -1208.8114    239.45567   -969.35569    356.70885    15.034695    15.034695    15.034695            0            0            0 
   25400    296.62463   -1225.5638    219.57178    -1005.992    1515.9227     14.97583     14.97583     14.97583            0            0            0 
   25500    288.05076   -1212.2697    213.22511   -999.04456   -641.83946    15.209138    15.209138    15.209138            0            0            0 
   25600    314.93618   -1215.3997    233.12663   -982.27303   -649.06677    15.107501    15.107501    15.107501            0            0            0 
   25700    309.82816   -1228.3447    229.34549   -998.99924    418.15588    14.944793    14.944793    14.944793            0            0            0 
   25800    330.00902   -1221.0996    244.28406   -976.81551    844.30444    14.983581    14.983581    14.983581            0            0            0 
   25900    269.54976   -1226.4111    199.53003    -1026.881    -235.8458    14.978989    14.978989    14.978989            0            0            0 
   26000    281.11139   -1225.8808    208.08835   -1017.7924    290.54336    14.945471    14.945471    14.945471            0            0            0 
   26100    288.10156     -1206.16    213.26271   -992.89731    368.16053    15.128526    15.128526    15.128526            0            0            0 
   26200    313.70077   -1215.8429    232.21213   -983.63074    389.12946     15.00766     15.00766     15.00766            0            0            0 
   26300    322.80144   -1212.5286    238.94876   -973.57987   -2263.8418    15.026049    15.026049    15.026049            0            0            0 
   26400    322.22224   -1211.0378    238.52002   -972.51775    548.47827    14.945926    14.945926    14.945926            0            0            0 
   26500    303.55614   -1193.7436    224.70272   -969.04083   -790.34364    15.107954    15.107954    15.107954            0            0            0 
   26600    306.92243   -1189.4565    227.19457   -962.26193    1829.3324     14.98327     14.98327     14.98327            0            0            0 
   26700    294.15303   -1191.5832    217.74222   -973.84098    737.16548    15.046916    15.046916    15.046916            0            0            0 
   26800    327.36256   -1202.3732    242.32506   -960.04811   -1200.9286    15.125264    15.125264    15.125264            0            0            0 
   26900    287.10175   -1190.7028    212.52262   -978.18018    1290.1344     14.83949     14.83949     14.83949            0            0            0 
   27000    331.93083   -1203.0629    245.70665   -957.35628    23.142068    14.900523    14.900523    14.900523            0            0            0 
   27100    326.34185   -1195.0437     241.5695   -953.47417   -1416.3406    14.937751    14.937751    14.937751            0            0            0 
   27200    294.75739   -1209.7135    218.18958   -991.52393    -426.9098    15.005144    15.005144    15.005144            0            0            0 
   27300    288.64026    -1180.218    213.66148   -966.55649    1317.7402    15.047782    15.047782    15.047782            0            0            0 
   27400    285.65837   -1192.6037    211.45418   -981.14948   -387.54041     15.18061     15.18061     15.18061            0            0            0 
   27500    314.93359   -1199.6779    233.12471   -966.55323   -37.086561    15.107137    15.107137    15.107137            0            0            0 
   27600    329.75621     -1173.76    244.09692   -929.66305    1314.5384    15.006182    15.006182    15.006182            0            0            0 
   27700    317.75497   -1169.9042    235.21319   -934.69103    1418.4198    14.999294    14.999294    14.999294            0            0            0 
   27800    329.33261   -1190.4308    243.78335   -946.64749    1561.9005    15.057543    15.057543    15.057543            0            0            0 
   27900    307.35486   -1214.3343    227.51467   -986.81964    203.76378    15.146064    15.146064    15.146064            0            0            0 
   28000    304.25288   -1206.2775    225.21848   -981.05906   -359.35099    15.128773    15.128773    15.128773            0            0            0 
   28100    309.39388   -1213.0055    229.02402   -983.98151   -765.63065    15.054329    15.054329    15.054329            0            0            0 
   28200    311.64234    -1175.713    230.68841   -945.02463   -1294.7116    15.164357    15.164357    15.164357            0            0            0 
   28300    297.92086   -1215.6915     220.5313   -995.16021    2261.3009    14.969227    14.969227    14.969227            0            0            0 
   28400    288.55958   -1188.6875    213.60176   -975.08576    517.46435    15.150497    15.150497    15.150497            0            0            0 
   28500    288.64903    -1200.767    213.66797   -987.09899    -1153.137    15.261185    15.261185    15.261185            0            0            0 
   28600    290.86478   -1169.8655    215.30815   -954.55733   -159.34954    15.286497    15.286497    15.286497            0            0            0 
   28700    284.73751    -1194.317    210.77253   -983.54447    2261.9594    14.966535    14.966535    14.966535            0            0            0 
   28800    284.84958   -1198.6892    210.85548   -987.83376   -768.31703    15.063047    15.063047    15.063047            0            0            0 
   28900    314.54966   -1196.0829    232.84051   -963.24235    -273.2228     15.20543     15.20543     15.20543            0            0            0 
   29000    301.83142   -1161.1806    223.42603   -937.75458   -1060.3826    15.333429    15.333429    15.333429            0            0            0 
   29100    316.78148   -1190.3022    234.49258   -955.80966    1036.5088    15.142782    15.142782    15.142782            0            0            0 
   29200     312.4785   -1188.8423    231.30737    -957.5349    786.61006    15.123576    15.123576    15.123576            0            0            0 
   29300     338.3303   -1209.6157    250.44376   -959.17195    1059.7311    15.057707    15.057707    15.057707            0            0            0 
   29400    275.76379   -1177.2413    204.12987   -973.11147   -584.59031    15.212596    15.212596    15.212596            0            0            0 
   29500    310.87637   -1197.6778    230.12141   -967.55641    1100.5165     14.98434     14.98434     14.98434            0            0            0 
   29600    309.84633   -1217.7695    229.35894   -988.41053    1120.4421    14.925904    14.925904    14.925904            0            0            0 
   29700    283.04659   -1209.0282    209.52085   -999.50737    165.24151    15.022138    15.022138    15.022138            0            0            0 
   29800    272.86226   -1173.9781    201.98206   -971.99601   -1368.4962    15.215551    15.215551    15.215551            0            0            0 
   29900    282.29846   -1191.6861    208.96706     -982.719    1847.7195    14.955366    14.955366    14.955366            0            0            0 
   30000    303.71011   -1177.3818     224.8167   -952.56508   -548.74243    15.067199    15.067199    15.067199            0            0            0 
   30100    291.88311   -1217.9397    216.06195   -1001.8777   -479.78879    14.958819    14.958819    14.958819            0            0            0 
   30200    315.70082   -1211.1305    233.69264   -977.43789   -81.040056    14.903705    14.903705    14.903705            0            0            0 
   30300     310.4595   -1193.2222    229.81283   -963.40933    -680.5674    15.016303    15.016303    15.016303            0            0            0 
   30400    329.59581   -1208.0728    243.97819   -964.09463    697.42202    14.948143    14.948143    14.948143            0            0            0 
   30500     305.8171   -1176.3251    226.37637   -949.94877   -1310.4958    15.226137    15.226137    15.226137            0            0            0 
   30600    311.64516   -1216.5806     230.6905   -985.89006    690.23514    15.235561    15.235561    15.235561            0            0            0 
   30700    291.79592   -1188.5718    215.99741   -972.57438    872.87724    15.292104    15.292104    15.292104            0            0            0 
   30800    316.71323    -1211.242    234.44206   -976.79996   -1213.0346    15.232132    15.232132    15.232132            0            0            0 
   30900    281.44497   -1201.5158    208.33527   -993.18056    1283.8555    14.999542    14.999542    14.999542            0            0            0 
   31000    287.94778   -1185.6127    213.14888    -972.4638   -35.549649    15.120447    15.120447    15.120447            0            0            0 
   31100    311.16197   -1200.6435    230.33282   -970.31065    125.20806    15.064017    15.064017    15.064017            0            0            0 
   31200    308.32691   -1210.1251    228.23422   -981.89091   -534.14476    15.043774    15.043774    15.043774            0            0            0 
   31300    296.09536   -1183.9132       219.18   -964.73325    -867.4742    15.292759    15.292759    15.292759            0            0            0 
   31400    319.58428   -1190.7569    236.56731   -954.18957    2993.2965    15.230433    15.230433    15.230433            0            0            0 
   31500    272.01336    -1170.833    201.35367   -969.47934   -2341.4313    15.493685    15.493685    15.493685            0            0            0 
   31600    319.44936   -1198.2206    236.46744   -961.75312    623.18722    15.284389    15.284389    15.284389            0            0            0 
   31700    286.65603    -1181.772    212.19268   -969.57934   -6.4338006    15.249561    15.249561    15.249561            0            0            0 
   31800    303.87819   -1187.2639    224.94112    -962.3228    932.97022    15.084431    15.084431    15.084431            0            0            0 
   31900     288.0062   -1198.2061    213.19212   -985.01395    1591.6855     15.11076     15.11076     15.11076            0            0            0 
   32000    288.09456    -1200.067    213.25753   -986.80946    1048.9323    15.274044    15.274044    15.274044            0            0            0 
   32100    295.14398   -1230.0083    218.47575   -1011.5326    348.12115     15.23169     15.23169     15.23169            0            0            0 
   32200    307.23938   -1199.6439    227.42919   -972.21471   -1320.8286    15.309567    15.309567    15.309567            0            0            0 
   32300    300.42168   -1203.9468    222.38249   -981.56427    890.32918    15.103919    15.103919    15.103919            0            0            0 
   32400    308.34991   -1191.5968    228.25124   -963.34558    377.55472    15.084331    15.084331    15.084331            0            0            0 
   32500    292.14982   -1200.4975    216.25937   -984.23817   -116.82946    15.127632    15.127632    15.127632            0            0            0 
   32600    322.55676   -1205.5663    238.76764   -966.79871    90.010645    15.111202    15.111202    15.111202            0            0            0 
   32700    283.34225   -1130.7027    209.73971   -920.96299   -1753.2568     15.20276     15.20276     15.20276            0            0            0 
   32800    281.78625   -1189.2994     208.5879   -980.71154    1760.5972    15.066505    15.066505    15.066505            0            0            0 
   32900    320.55923   -1188.1731      237.289   -950.88408    499.59709     15.11951     15.11951     15.11951            0            0            0 
   33000     296.0144   -1188.2841    219.12007   -969.16401   -851.69546    15.182774    15.182774    15.182774            0            0            0 
   33100    300.76166   -1167.6027    222.63415   -944.96853    297.69934    15.231802    15.231802    15.231802            0            0            0 
   33200    322.61974   -1198.7788    238.81426   -959.96455   -540.92018    15.259569    15.259569    15.259569            0            0            0 
   33300     308.8223   -1176.8179    228.60092   -948.21695    123.58754    15.223357    15.223357    15.223357            0            0            0 
   33400    301.68464   -1171.5462    223.31737   -948.22878    342.12183    15.055182    15.055182    15.055182            0            0            0 
   33500    342.19438   -1230.2687    253.30408   -976.96461    1081.1225    14.876773    14.876773    14.876773            0            0            0 
   33600    299.06562   -1200.8155    221.37869   -979.43679   -280.22787    15.056207    15.056207    15.056207            0            0            0 
   33700    317.84202   -1190.5001    235.27763   -955.22244   -167.68569    14.963395    14.963395    14.963395            0            0            0 
   33800    320.66236   -1174.8378    237.36534   -937.47251   -291.12644    14.952902    14.952902    14.952902            0            0            0 
   33900    298.15592   -1186.5917     220.7053   -965.88641    1765.4069    14.851539    14.851539    14.851539            0            0            0 
   34000     268.2859   -1175.1088    198.59448   -976.51436    2535.7153    14.875482    14.875482    14.875482            0            0            0 
   34100    291.83932   -1205.3481    216.02954   -989.31854    351.30663     14.93683     14.93683     14.93683            0            0            0 
   34200    301.34968   -1189.2259    223.06943   -966.15647   -2091.0229    15.125229    15.125229    15.125229            0            0            0 
   34300     318.4645   -1200.8163    235.73841   -965.07786    1518.0203    14.947712    14.947712    14.947712            0            0            0 
   34400    319.61891   -1182.3026    236.59294   -945.70961    1375.0445    15.095171    15.095171    15.095171            0            0            0 
   34500    311.81919   -1191.0769    230.81932   -960.25754    94.367587    15.020787    15.020787    15.020787            0            0            0 
   34600    278.27099   -1181.8062    205.98578   -975.82047   -66.260584    14.896668    14.896668    14.896668            0            0            0 
   34700    307.32401   -1193.6206    227.49184   -966.12874    855.26119    14.793104    14.793104    14.793104            0            0            0 
   34800    281.27005   -1205.7233    208.20579   -997.51752    47.446122    14.834784    14.834784    14.834784            0            0            0 
   34900    282.04413   -1201.6266    208.77879   -992.84777   -407.19522    14.819967    14.819967    14.819967            0            0            0 
   35000    330.13495   -1229.0701    244.37728   -984.69282   -675.23496    14.902745    14.902745    14.902745            0            0            0 
   35100    305.47818   -1223.6212    226.12549   -997.49569    275.19064    14.931842    14.931842    14.931842            0            0            0 
   35200     299.4199   -1197.4659    221.64094     -975.825   -87.624903    14.980088    14.980088    14.980088            0            0            0 
   35300    315.05942   -1202.2124    233.21785   -968.99452   -1761.2439    14.996838    14.996838    14.996838            0            0            0 
   35400    294.81289   -1215.5379    218.23067   -997.30721   -57.212352    14.914956    14.914956    14.914956            0            0            0 
   35500    305.29425   -1221.8673    225.98933   -995.87799     160.4196    14.854709    14.854709    14.854709            0            0            0 
   35600    280.09777   -1218.9417    207.33803   -1011.6037    1384.6463    14.813763    14.813763    14.813763            0            0            0 
   35700    300.30158   -1207.8091    222.29359    -985.5155    263.47567     14.83898     14.83898     14.83898            0            0            0 
   35800    300.76873   -1215.8913    222.63939   -993.25194   -2511.8499    15.065246    15.065246    15.065246            0            0            0 
   35900    308.91861   -1216.0846    228.67221   -987.41242   -505.34128    15.013122    15.013122    15.013122            0            0            0 
   36000    311.81588   -1207.6313    230.81687   -976.81446     1435.374    15.016767    15.016767    15.016767            0            0            0 
   36100    284.86687   -1194.5626    210.86829    -983.6943    -155.6971    15.069337    15.069337    15.069337            0            0            0 
   36200    285.05954   -1196.7273     211.0109    -985.7164    643.03572    14.962468    14.962468    14.962468            0            0            0 
   36300    288.09794   -1190.9886    213.26003   -977.72858   -1336.7505    15.108325    15.108325    15.108325            0            0            0 
   36400    306.11836   -1215.9311    226.59937   -989.33175    662.03531    14.882526    14.882526    14.882526            0            0            0 
   36500    330.91927   -1221.0617    244.95786   -976.10382    -1986.453    14.932327    14.932327    14.932327            0            0            0 
   36600    309.52689   -1228.2843    229.12248   -999.16185    595.20675    14.719471    14.719471    14.719471            0            0            0 
   36700     300.8896   -1224.8817    222.72886   -1002.1529   -744.35495    15.014895    15.014895    15.014895            0            0            0 
   36800    310.07617   -1198.5722    229.52908    -969.0431    899.64571    14.912489    14.912489    14.912489            0            0            0 
   36900    329.09797   -1210.5992    243.60967    -966.9895    1509.6174    14.884791    14.884791    14.884791            0            0            0 
   37000    315.98972    -1194.686    233.90649   -960.77946    -452.4964    14.935178    14.935178    14.935178            0            0            0 
   37100    328.00831   -1186.1396    242.80306   -943.33654    495.22493    14.819034    14.819034    14.819034            0            0            0 
   37200    316.98778   -1200.6171    234.64529   -965.97177   -1193.1018    14.803912    14.803912    14.803912            0            0            0 
   37300     291.2605   -1224.6249    215.60107   -1009.0239    126.52215     14.79657     14.79657     14.79657            0            0            0 
   37400    296.47874   -1221.2525    219.46379   -1001.7888    958.48734       14.814       14.814       14.814            0            0            0 
   37500    299.03338    -1208.156    221.35482   -986.80114    -1729.769    14.987994    14.987994    14.987994            0            0            0 
   37600    277.53528   -1223.3389    205.44119   -1017.8977   -114.03818    14.943679    14.943679    14.943679            0            0            0 
   37700    316.34617   -1222.4732    234.17035   -988.30286   -78.753831    14.781595    14.781595    14.781595            0            0            0 
   37800    322.16201   -1216.9187    238.47543   -978.44324    330.24062    14.707723    14.707723    14.707723            0            0            0 
   37900    317.43254   -1202.3201    234.97452   -967.34562    161.92732    14.795569    14.795569    14.795569            0            0            0 
   38000      291.778   -1193.3417    215.98414   -977.35752    1417.0189    14.780074    14.780074    14.780074            0            0            0 
   38100     309.5774   -1215.8175    229.15987   -986.65762    196.98566    14.854849    14.854849    14.854849            0            0            0 
   38200    271.46284   -1207.1162    200.94616   -1006.1701   -492.93972    15.048603    15.048603    15.048603            0            0            0 
   38300    272.26015   -1221.1942    201.53635   -1019.6579    1287.6702    14.986809    14.986809    14.986809            0            0            0 
   38400     306.5692   -1224.9637     226.9331   -998.03062    24.781761    14.966189    14.966189    14.966189            0            0            0 
   38500    310.45683   -1232.2149    229.81085    -1002.404    3824.6304    14.748036    14.748036    14.748036            0            0            0 
   38600    279.28966   -1218.5792    206.73984   -1011.8394    80.631559    15.067296    15.067296    15.067296            0            0            0 
   38700    287.83724   -1204.7974    213.06705   -991.73039   -146.98788    15.027581    15.027581    15.027581            0            0            0 
   38800    316.19077   -1201.3244    234.05532   -967.26904    414.64426    14.993844    14.993844    14.993844            0            0            0 
   38900    322.52444   -1181.8028    238.74372   -943.05904    1982.4886    14.999406    14.999406    14.999406            0            0            0 
   39000    292.48405   -1180.9715    216.50678   -964.46469    991.60585    15.107192    15.107192    15.107192            0            0            0 
   39100    300.42572    -1200.326    222.38548   -977.94054    1823.2168    14.990201    14.990201    14.990201            0            0            0 
   39200    311.85759   -1205.7159    230.84774   -974.86816    847.92686    15.010305    15.010305    15.010305            0            0            0 
   39300    291.99648   -1179.4936    216.14587   -963.34778   -17.869022    15.282002    15.282002    15.282002            0            0            0 
   39400    310.17176   -1206.4708    229.59984   -976.87095   -703.58747    15.310348    15.310348    15.310348            0            0            0 
   39500    311.06219   -1220.5879    230.25896   -990.32898    812.51935    15.096587    15.096587    15.096587            0            0            0 
   39600     287.1621   -1198.6582    212.56729   -986.09087     -537.042    15.156228    15.156228    15.156228            0            0            0 
   39700    303.35373   -1192.0595     224.5529   -967.50658    221.32018     15.16419     15.16419     15.16419            0            0            0 
   39800    279.95709   -1153.7804     207.2339   -946.54652   -1688.6888    15.340485    15.340485    15.340485            0            0            0 
   39900    316.80291   -1181.3617    234.50845   -946.85325     1148.273    15.184291    15.184291    15.184291            0            0            0 
   40000    329.35317   -1194.5699    243.79857   -950.77131   -42.990625    15.150966    15.150966    15.150966            0            0            0 
   40100    306.76162   -1196.6532    227.07553   -969.57766    1262.1091    15.217745    15.217745    15.217745            0            0            0 
   40200    290.31494   -1178.6013    214.90114   -963.70014    -759.7319    15.380035    15.380035    15.380035            0            0            0 
   40300    293.06154   -1172.2254    216.93426   -955.29113     2035.444    15.141682    15.141682    15.141682            0            0            0 
   40400    306.93366    -1175.148    227.20288   -947.94511   -2481.2692    15.285083    15.285083    15.285083            0            0            0 
   40500    279.07813   -1174.9728    206.58326   -968.38956    25.823786    14.893988    14.893988    14.893988            0            0            0 
   40600    304.21602   -1196.7062    225.19119   -971.51505     -869.038    14.929349    14.929349    14.929349            0            0            0 
   40700    318.70354   -1186.2138    235.91536   -950.29848   -1009.7985    15.123692    15.123692    15.123692            0            0            0 
   40800    294.81909   -1176.1531    218.23526   -957.91788   -476.13603    15.201413    15.201413    15.201413            0            0            0 
   40900     317.6222   -1198.9314    235.11491    -963.8165   -546.60046    15.039844    15.039844    15.039844            0            0            0 
   41000    289.44166   -1169.1072     214.2547    -954.8525    25.198539    15.005055    15.005055    15.005055            0            0            0 
   41100    308.57563   -1178.1212    228.41832   -949.70283    1263.2721    14.994346    14.994346    14.994346            0            0            0 
   41200    282.05848    -1187.836    208.78941   -979.04657    -193.4169    14.980413    14.980413    14.980413            0            0            0 
   41300     308.6419   -1224.0693    228.46738   -995.60191    519.73306    14.986688    14.986688    14.986688            0            0            0 
   41400    323.15566    -1187.876    239.21096   -948.66505    694.69335     15.11479     15.11479     15.11479            0            0            0 
   41500    287.83669   -1205.3497    213.06665   -992.28307    503.36487    15.147792    15.147792    15.147792            0            0            0 
   41600    297.65336    -1207.873    220.33329   -987.53971   -1007.2367    15.182078    15.182078    15.182078            0            0            0 
   41700    334.41715   -1181.2549    247.54711   -933.70778    352.45436    15.102512    15.102512    15.102512            0            0            0 
   41800    304.36193   -1182.4479     225.2992   -957.14873   -956.32048    15.319404    15.319404    15.319404            0            0            0 
   41900    294.88553   -1193.6324    218.28444   -975.34794   -1074.8397    15.364573    15.364573    15.364573            0            0            0 
   42000    315.65573      -1223.5    233.65926   -989.84072   -100.11443    15.169351    15.169351    15.169351            0            0            0 
   42100    308.76004   -1212.3091    228.55483   -983.75429    965.43428    15.053953    15.053953    15.053953            0            0            0 
   42200    292.03839   -1224.6973    216.17689   -1008.5204    482.43889    15.096938    15.096938    15.096938            0            0            0 
   42300    273.50497   -1196.1735    202.45781    -993.7157   -381.80947    15.235144    15.235144    15.235144            0            0            0 
   42400    289.61987   -1186.8314    214.38662   -972.44479   -493.45209    15.127477    15.127477    15.127477            0            0            0 
   42500    305.80864    -1215.772     226.3701   -989.40193     607.9563    15.117348    15.117348    15.117348            0            0            0 
   42600      283.593   -1194.5038    209.92532   -984.57846   -1965.5612    15.257381    15.257381    15.257381            0            0            0 
   42700    294.98054   -1210.9207    218.35477   -992.56591   -750.30853     15.16232     15.16232     15.16232            0            0            0 
   42800    309.69358   -1209.3432    229.24587   -980.09732    338.55388    14.996687    14.996687    14.996687            0            0            0 
   42900    298.34047   -1206.5367    220.84191   -985.69483   -2296.5265    14.990389    14.990389    14.990389            0            0            0 
   43000    269.88868   -1183.4408    199.78091   -983.65994   -1445.2537    14.981992    14.981992    14.981992            0            0            0 
   43100    300.34292   -1186.8239    222.32419   -964.49973   -265.86467    15.031404    15.031404    15.031404            0            0            0 
   43200     314.3851    -1233.812    232.71869   -1001.0934    155.67694    14.974418    14.974418    14.974418            0            0            0 
   43300    327.50977   -1219.1994    242.43403   -976.76541   -2054.6187    14.898531    14.898531    14.898531            0            0            0 
   43400    277.68069   -1192.8264    205.54883   -987.27761   -1179.1382     14.81188     14.81188     14.81188            0            0            0 
   43500    306.01869    -1202.132    226.52559   -975.60637   -1022.8375    14.927298    14.927298    14.927298            0            0            0 
   43600    296.15851   -1197.1867    219.22675   -977.95996    355.04371    14.895354    14.895354    14.895354            0            0            0 
   43700    274.48751   -1177.1527    203.18512   -973.96754   -367.86922    14.981922    14.981922    14.981922            0            0            0 
   43800    325.55361   -1183.0927    240.98601   -942.10668   -1784.6825    15.036231    15.036231    15.036231            0            0            0 
   43900    299.87521   -1193.5365    221.97797   -971.55851   -2117.7838    15.013467    15.013467    15.013467            0            0            0 
   44000    297.01931   -1178.8133    219.86394   -958.94938   -952.55995    15.044177    15.044177    15.044177            0            0            0 
   44100    276.59917    -1176.907    204.74825   -972.15874   -634.09846    14.981489    14.981489    14.981489            0            0            0 
   44200    310.08699   -1207.6476    229.53709   -978.11056   -24.150041    14.743849    14.743849    14.743849            0            0            0 
   44300    288.34586   -1188.5287    213.44355    -975.0851   -1798.3122    14.974547    14.974547    14.974547            0            0            0 
   44400    284.70015   -1195.8779    210.74487   -985.13298    179.51593    14.948027    14.948027    14.948027            0            0            0 
   44500    317.21767   -1204.7068    234.81546   -969.89138   -84.593742    14.912943    14.912943    14.912943            0            0            0 
   44600    298.88777   -1180.7006    221.24704   -959.45353   -708.81317     15.03713     15.03713     15.03713            0            0            0 
   44700    315.29352     -1166.17    233.39114   -932.77884   -715.89127     15.07581     15.07581     15.07581            0            0            0 
   44800    337.50248   -1197.0798    249.83098   -947.24878   -38.015499    15.090549    15.090549    15.090549            0            0            0 
   44900    323.19555   -1178.0286     239.2405    -938.7881    399.05828    15.043872    15.043872    15.043872            0            0            0 
   45000    284.05161   -1148.7185     210.2648   -938.45374    874.66647    14.996129    14.996129    14.996129            0            0            0 
   45100    313.18827   -1184.4269    231.83276   -952.59416   -52.419204    14.998645    14.998645    14.998645            0            0            0 
   45200    310.30267   -1207.3528    229.69674    -977.6561    557.93097    14.976779    14.976779    14.976779            0            0            0 
   45300    284.44612   -1219.0659    210.55683   -1008.5091   -2982.7752    15.162279    15.162279    15.162279            0            0            0 
   45400    268.88817   -1215.8036     199.0403   -1016.7633    588.42238    15.077375    15.077375    15.077375            0            0            0 
   45500    293.39342   -1208.8108    217.17993   -991.63086    1173.3575    15.101362    15.101362    15.101362            0            0            0 
   45600    282.80153   -1205.5319    209.33945   -996.19241     938.3555    15.050725    15.050725    15.050725            0            0            0 
   45700    300.99253   -1198.2255    222.80505   -975.42049   -1028.9382    15.104671    15.104671    15.104671            0            0            0 
   45800    298.43259   -1206.9891     220.9101   -986.07902   -835.16108    15.064451    15.064451    15.064451            0            0            0 
   45900    310.52884   -1227.3542    229.86416   -997.49005    2126.9459    14.873907    14.873907    14.873907            0            0            0 
   46000    293.08491   -1194.4926    216.95156   -977.54106    5.3234927    15.168984    15.168984    15.168984            0            0            0 
   46100    289.78339   -1201.1097    214.50766   -986.60208   -130.34753    14.980977    14.980977    14.980977            0            0            0 
   46200    314.42127   -1182.8665    232.74547   -950.12106   -1078.3882    15.105391    15.105391    15.105391            0            0            0 
   46300    305.80282   -1176.0073     226.3658   -949.64154   -280.53746    15.103244    15.103244    15.103244            0            0            0 
   46400    303.31939   -1212.6417    224.52747   -988.11425   -598.97616    15.047079    15.047079    15.047079            0            0            0 
   46500    284.03899   -1212.2547    210.25546   -1001.9992   -154.04483    15.060256    15.060256    15.060256            0            0            0 
   46600    284.43502   -1209.7536    210.54862   -999.20498    365.57835    15.010257    15.010257    15.010257            0            0            0 
   46700    269.93514   -1205.4045     199.8153   -1005.5892    1394.8275    14.925922    14.925922    14.925922            0            0            0 
   46800    279.25967   -1199.1435    206.71764   -992.42586   -706.30036    15.051251    15.051251    15.051251            0            0            0 
   46900    317.07201   -1214.0707    234.70764   -979.36311   -281.87282    15.062954    15.062954    15.062954            0            0            0 
   47000    320.67043    -1207.245    237.37132   -969.87364    522.77865    15.000722    15.000722    15.000722            0            0            0 
   47100     312.0693    -1218.109    231.00446   -987.10454   -1763.8799    15.065733    15.065733    15.065733            0            0            0 
   47200    284.31875   -1221.9236    210.46254    -1011.461    1762.0427    14.930463    14.930463    14.930463            0            0            0 
   47300     280.1039    -1206.747    207.34257   -999.40441   -1126.1298    15.096565    15.096565    15.096565            0            0            0 
   47400    290.50079   -1219.5714     215.0387   -1004.5326   -260.70941    14.999358    14.999358    14.999358            0            0            0 
   47500    285.79685    -1213.527    211.55669   -1001.9704    1393.5318     14.91908     14.91908     14.91908            0            0            0 
   47600    298.13705   -1204.3227    220.69133   -983.63133    78.912186    15.098927    15.098927    15.098927            0            0            0 
   47700    304.91141   -1200.5313    225.70594   -974.82539    1545.3793    15.047815    15.047815    15.047815            0            0            0 
   47800    276.41639   -1196.0604    204.61294   -991.44742   -806.09268    15.187064    15.187064    15.187064            0            0            0 
   47900    309.55575   -1189.7086    229.14385   -960.56474    40.045624    15.175492    15.175492    15.175492            0            0            0 
   48000    316.16878   -1190.7833    234.03904   -956.74424   -1021.2559    15.274143    15.274143    15.274143            0            0            0 
   48100    302.09694   -1177.7781    223.62258   -954.15547    107.07659    15.169149    15.169149    15.169149            0            0            0 
   48200    320.60819   -1196.8737    237.32524   -959.54848    1548.2703     14.93477     14.93477     14.93477            0            0            0 
   48300    331.08396   -1216.9408    245.07977   -971.86108   -564.51999    15.083928    15.083928    15.083928            0            0            0 
   48400    321.72536   -1216.5942    238.15221   -978.44203   -849.72805    15.165996    15.165996    15.165996            0            0            0 
   48500    318.54493   -1213.1123    235.79795   -977.31433    1064.1403    15.065456    15.065456    15.065456            0            0            0 
   48600    325.41464   -1193.3452    240.88314   -952.46203    1216.4922     15.01953     15.01953     15.01953            0            0            0 
   48700    332.10677   -1196.1995    245.83688   -950.36257   -788.17064    14.992478    14.992478    14.992478            0            0            0 
   48800    292.06426    -1217.702    216.19604   -1001.5059   -1845.9404    15.004106    15.004106    15.004106            0            0            0 
   48900    302.46317   -1185.5399    223.89367   -961.64621     2617.825    14.859815    14.859815    14.859815            0            0            0 
   49000     289.5813   -1190.6989    214.35807   -976.34084   -1393.4888    15.281885    15.281885    15.281885            0            0            0 
   49100    296.52781   -1204.4144    219.50012   -984.91427   -1461.3973    15.262962    15.262962    15.262962            0            0            0 
   49200    293.70085   -1209.6862     217.4075   -992.27865   -111.11741      15.1758      15.1758      15.1758            0            0            0 
   49300    319.43443   -1184.0426    236.45639   -947.58619   -2065.0171    15.269772    15.269772    15.269772            0            0            0 
   49400    317.87442   -1191.7791    235.30161   -956.47745    258.20011    15.101458    15.101458    15.101458            0            0            0 
   49500     289.6463   -1202.6253    214.40618   -988.21917   -448.23347    15.173256    15.173256    15.173256            0            0            0 
   49600    298.56225   -1219.9438    221.00608   -998.93769   -887.63513    15.257713    15.257713    15.257713            0            0            0 
   49700    278.62212   -1199.0765     206.2457    -992.8308    2495.9238    15.102373    15.102373    15.102373            0            0            0 
   49800    287.57836   -1186.3853    212.87542   -973.50992   -377.00901    15.260189    15.260189    15.260189            0            0            0 
   49900    302.26742   -1215.7403    223.74877   -991.99152   -1291.4268    15.361864    15.361864    15.361864            0            0            0 
   50000    318.99304   -1221.8837    236.12965   -985.75403    -612.4534    15.299326    15.299326    15.299326            0            0            0 
   50100    291.76385   -1215.3772    215.97367   -999.40353    227.48186    15.288148    15.288148    15.288148            0            0            0 
   50200    280.78429   -1211.4051    207.84622   -1003.5589   -1689.3438    15.429789    15.429789    15.429789            0            0            0 
   50300    275.94752   -1209.0061    204.26587   -1004.7402    466.50016    15.323271    15.323271    15.323271            0            0            0 
   50400    288.90374   -1216.3542    213.85652   -1002.4977    1064.3632    15.171841    15.171841    15.171841            0            0            0 
   50500    270.74481   -1207.8549    200.41465   -1007.4402    1038.5354    14.925017    14.925017    14.925017            0            0            0 
   50600    302.56308   -1198.4514    223.96763   -974.48376   -285.66088    14.939638    14.939638    14.939638            0            0            0 
   50700     276.7959   -1194.7683    204.89388   -989.87447   -49.324048    15.093827    15.093827    15.093827            0            0            0 
   50800    311.89349    -1184.708    230.87432   -953.83363   -1857.8373    15.160994    15.160994    15.160994            0            0            0 
   50900    298.66592   -1191.4911    221.08281   -970.40828   -2081.2073    15.299951    15.299951    15.299951            0            0            0 
   51000    284.10143   -1189.4693    210.30168   -979.16761     3294.975    14.981846    14.981846    14.981846            0            0            0 
   51100    279.20469   -1198.2192    206.67694   -991.54222    79.899503    15.100915    15.100915    15.100915            0            0            0 
   51200    297.43793   -1225.1429    220.17381   -1004.9691   -393.63095    15.148001    15.148001    15.148001            0            0            0 
   51300    301.85245   -1208.2965     223.4416   -984.85494   -850.46535    15.196309    15.196309    15.196309            0            0            0 
   51400    307.04212   -1195.3212    227.28317   -968.03798    868.54488    15.258146    15.258146    15.258146            0            0            0 
   51500     318.7661   -1199.1786    235.96166   -963.21695    595.70192    15.104133    15.104133    15.104133            0            0            0 
   51600    307.91739   -1209.6816    227.93108   -981.75054   -291.47014    15.078124    15.078124    15.078124            0            0            0 
   51700    296.10602   -1228.3993    219.18789   -1009.2114   -1041.8046    15.087002    15.087002    15.087002            0            0            0 
   51800    301.35601   -1215.9345    223.07411   -992.86034    742.99769    15.017269    15.017269    15.017269            0            0            0 
   51900    299.86197    -1202.418    221.96817   -980.44983    1622.0795    14.746745    14.746745    14.746745            0            0            0 
   52000    296.62952   -1204.6829     219.5754   -985.10747    -1077.235    14.816372    14.816372    14.816372            0            0            0 
   52100    297.15483   -1216.1009    219.96426   -996.13662    5.7120659    14.887749    14.887749    14.887749            0            0            0 
   52200    299.60171   -1233.7829    221.77552   -1012.0074   -1763.6194    14.984103    14.984103    14.984103            0            0            0 
   52300    300.63884   -1235.4654    222.54324   -1012.9221   -1058.2565    15.003117    15.003117    15.003117            0            0            0 
   52400    303.92829   -1228.1875     224.9782   -1003.2093    931.09564    14.987771    14.987771    14.987771            0            0            0 
   52500    288.85677   -1200.1202    213.82174   -986.29847   -760.05798    15.038517    15.038517    15.038517            0            0            0 
   52600    330.76389   -1219.8474    244.84284    -975.0046   -111.44374    14.900646    14.900646    14.900646            0            0            0 
   52700    298.35442   -1219.0176    220.85223   -998.16532    1063.9643    14.839177    14.839177    14.839177            0            0            0 
   52800    317.90621   -1218.1579    235.32514   -982.83271   -1955.5698    14.966696    14.966696    14.966696            0            0            0 
   52900    284.21671   -1203.5531    210.38701   -993.16611    1530.1132    14.839462    14.839462    14.839462            0            0            0 
   53000    295.84455   -1198.1704    218.99434   -979.17606    135.80289    14.929771    14.929771    14.929771            0            0            0 
   53100    346.76781   -1236.0216     256.6895   -979.33212    -1379.208    15.020614    15.020614    15.020614            0            0            0 
   53200    333.08716   -1205.2638    246.56261   -958.70118    1945.1642    15.081742    15.081742    15.081742            0            0            0 
   53300    304.39942    -1202.353    225.32695   -977.02607   -178.29303    15.166077    15.166077    15.166077            0            0            0 
   53400    321.41801   -1210.6317     237.9247   -972.70702     1171.477    15.139186    15.139186    15.139186            0            0            0 
   53500    277.02867   -1203.9115    205.06618   -998.84536   -840.22979    15.156232    15.156232    15.156232            0            0            0 
   53600    291.26773   -1198.6796    215.60642   -983.07322   -253.62026    14.973227    14.973227    14.973227            0            0            0 
   53700    288.34046   -1227.8557    213.43955   -1014.4162   -36.741489    14.978555    14.978555    14.978555            0            0            0 
   53800    295.61763   -1232.7111    218.82637   -1013.8847   -640.35084     14.93393     14.93393     14.93393            0            0            0 
   53900    289.50718   -1199.1581     214.3032   -984.85494    91.151173    14.825219    14.825219    14.825219            0            0            0 
   54000    294.02391   -1193.4352    217.64664   -975.78857   -1427.9568    14.946473    14.946473    14.946473            0            0            0 
   54100    323.90969   -1209.9768    239.76913   -970.20772    412.27996    14.976903    14.976903    14.976903            0            0            0 
   54200    287.24588    -1205.502    212.62931   -992.87272   -1141.8244    15.161557    15.161557    15.161557            0            0            0 
   54300    269.03152   -1222.0889    199.14641   -1022.9424    535.71278    14.943672    14.943672    14.943672            0            0            0 
   54400     312.1108   -1221.8525    231.03518   -990.81729    514.67996    14.832596    14.832596    14.832596            0            0            0 
   54500    301.12989    -1207.761    222.90673   -984.85428   -302.71887    14.857627    14.857627    14.857627            0            0            0 
   54600    309.91615   -1211.8668    229.41062   -982.45622    559.83347    14.875162    14.875162    14.875162            0            0            0 
   54700    297.87818   -1233.5202     220.4997   -1013.0205    363.20555    14.834692    14.834692    14.834692            0            0            0 
   54800     286.1827   -1203.8598    211.84231   -992.01748   -783.11178    14.847016    14.847016    14.847016            0            0            0 
   54900    297.98354   -1201.2332     220.5777   -980.65551   -31.646772    14.820022    14.820022    14.820022            0            0            0 
   55000    284.54385   -1213.7181    210.62917    -1003.089    63.230552    14.844667    14.844667    14.844667            0            0            0 
   55100    289.30102   -1203.2957    214.15059   -989.14511    1429.9182    14.810892    14.810892    14.810892            0            0            0 
   55200    296.79713   -1184.1795    219.69948   -964.48003     809.5366    14.955857    14.955857    14.955857            0            0            0 
   55300    322.81596   -1221.5538    238.95951   -982.59428   -20.163058    15.041942    15.041942    15.041942            0            0            0 
   55400    291.55601   -1181.5679    215.81981   -965.74805   -1570.6157    14.985315    14.985315    14.985315            0            0            0 
   55500    306.02068   -1181.7707    226.52706   -955.24368    84.268348    14.749747    14.749747    14.749747            0            0            0 
   55600    295.01891   -1193.5072    218.38317     -975.124   -861.05703    14.766766    14.766766    14.766766            0            0            0 
   55700    284.15015   -1178.9738    210.33774   -968.63604    1915.3883     14.83922     14.83922     14.83922            0            0            0 
   55800    279.23214   -1186.5741    206.69726   -979.87689   -445.45539     14.98556     14.98556     14.98556            0            0            0 
   55900    311.87353   -1180.4751    230.85955   -949.61557    853.77281    14.892457    14.892457    14.892457            0            0            0 
   56000    285.33192   -1199.7261    211.21253   -988.51358    246.62936    14.880703    14.880703    14.880703            0            0            0 
   56100    324.53273   -1210.4494    240.23032   -970.21904    730.46474    14.921063    14.921063    14.921063            0            0            0 
   56200    317.48319   -1211.9904    235.01201   -976.97836   -1660.7223    14.975145    14.975145    14.975145            0            0            0 
   56300    317.12569    -1219.817    234.74738   -985.06962    449.42898    14.816865    14.816865    14.816865            0            0            0 
   56400    311.01148   -1195.6325    230.22142   -965.41106    -2.245825    14.930555    14.930555    14.930555            0            0            0 
   56500    316.60841   -1196.3641    234.36447   -961.99961   -2456.3118    15.027415    15.027415    15.027415            0            0            0 
   56600    304.92864    -1223.986     225.7187   -998.26725    973.64543    14.883148    14.883148    14.883148            0            0            0 
   56700    278.52517   -1221.8958    206.17394   -1015.7218   -837.50823    14.935092    14.935092    14.935092            0            0            0 
   56800    291.39695   -1239.5354    215.70207   -1023.8333    760.02061    14.851236    14.851236    14.851236            0            0            0 
   56900    306.05943   -1218.2802    226.55575   -991.72443   -1336.2145    14.885217    14.885217    14.885217            0            0            0 
   57000    283.32496   -1219.5818    209.72691   -1009.8549    785.10103    14.783312    14.783312    14.783312            0            0            0 
   57100     304.4923   -1221.1872    225.39571   -995.79153   -560.21635    14.974762    14.974762    14.974762            0            0            0 
   57200    292.38907   -1200.0605    216.43647   -983.62402    -349.1951    14.991581    14.991581    14.991581            0            0            0 
   57300    301.05013    -1212.497    222.84769   -989.64927   -650.75913     14.91892     14.91892     14.91892            0            0            0 
   57400    291.11859   -1215.8953    215.49602   -1000.3992   -523.70212    14.882358    14.882358    14.882358            0            0            0 
   57500    298.96465   -1222.5956    221.30395   -1001.2916   -120.90503     14.80569     14.80569     14.80569            0            0            0 
   57600    335.68135   -1225.7151    248.48292   -977.23216    1511.0694    14.890113    14.890113    14.890113            0            0            0 
   57700    315.35482    -1200.815    233.43652   -967.37847   -1672.3987    15.258432    15.258432    15.258432            0            0            0 
   57800    298.69134   -1164.3228    221.10164   -943.22113    133.64178    15.198889    15.198889    15.198889            0            0            0 
   57900    312.57798   -1173.5893    231.38101   -942.20828    733.26294    15.102315    15.102315    15.102315            0            0            0 
   58000    311.45621   -1175.7963    230.55063   -945.24563   -535.46315    15.058682    15.058682    15.058682            0            0            0 
   58100    293.07134   -1153.9874    216.94152   -937.04591   -11.894877    14.988489    14.988489    14.988489            0            0            0 
   58200    292.78653   -1179.7884    216.73069   -963.05773     55.08993    14.956936    14.956936    14.956936            0            0            0 
   58300    332.79332   -1178.5132     246.3451   -932.16807     1174.459    14.906271    14.906271    14.906271            0            0            0 
   58400    287.07889   -1175.6145     212.5057   -963.10885   -1182.5665    15.140631    15.140631    15.140631            0            0            0 
   58500    287.96712   -1203.6122     213.1632   -990.44899    283.72547    14.968599    14.968599    14.968599            0            0            0 
   58600    300.98118   -1209.2494    222.79665   -986.45272   -1717.5684       14.963       14.963       14.963            0            0            0 
   58700    317.50374   -1184.8493    235.02722   -949.82209     523.9221    14.876441    14.876441    14.876441            0            0            0 
   58800    293.41561   -1166.2565    217.19635   -949.06014    1053.6515    14.860787    14.860787    14.860787            0            0            0 
   58900    313.53754   -1214.3787     232.0913   -982.28742    816.06868    14.941254    14.941254    14.941254            0            0            0 
   59000    276.72816   -1191.3183    204.84373   -986.47461   -1188.1779    15.072145    15.072145    15.072145            0            0            0 
   59100    300.20517   -1194.8174    222.22223   -972.59521   -207.60513     15.09009     15.09009     15.09009            0            0            0 
   59200    298.60063   -1184.4977    221.03449    -963.4632   -1162.8027    15.208054    15.208054    15.208054            0            0            0 
   59300    318.75448   -1176.7794    235.95306   -940.82637    773.95524    14.917483    14.917483    14.917483            0            0            0 
   59400    308.06849    -1200.968    228.04292   -972.92511    1462.3573     15.05143     15.05143     15.05143            0            0            0 
   59500    312.14092     -1192.18    231.05748   -961.12255    205.26176    15.133292    15.133292    15.133292            0            0            0 
   59600    293.08368   -1222.7358    216.95065   -1005.7852    193.12297    15.130416    15.130416    15.130416            0            0            0 
   59700     293.7875   -1207.7468    217.47164   -990.27513   -1393.3414    15.202115    15.202115    15.202115            0            0            0 
   59800    293.76567   -1224.6938    217.45548   -1007.2383   -1277.3138    15.180177    15.180177    15.180177            0            0            0 
   59900    301.75374   -1239.6586    223.36853   -1016.2901    1989.6134    15.047206    15.047206    15.047206            0            0            0 
   60000    275.83205   -1190.4607     204.1804   -986.28032    85.646629    15.377278    15.377278    15.377278            0            0            0 
   60100    302.83717   -1194.2288    224.17052   -970.05828    22.598105    15.347983    15.347983    15.347983            0            0            0 
   60200     298.9976   -1196.7278    221.32834   -975.39947   -323.48944    15.121214    15.121214    15.121214            0            0            0 
   60300    294.51356   -1220.9027     218.0091   -1002.8936   -294.95076    14.986068    14.986068    14.986068            0            0            0 
   60400    335.98307   -1221.6113    248.70626   -972.90508    162.89399    14.898907    14.898907    14.898907            0            0            0 
   60500    312.79169   -1209.6484     231.5392   -978.10923   -516.06177    14.876565    14.876565    14.876565            0            0            0 
   60600    305.56196   -1212.4092    226.18751   -986.22171   -1325.2642    14.939524    14.939524    14.939524            0            0            0 
   60700    316.47584   -1233.4934    234.26634   -999.22708    475.31427    14.946121    14.946121    14.946121            0            0            0 
   60800    287.52918   -1199.0868    212.83901    -986.2478    924.66315    14.977151    14.977151    14.977151            0            0            0 
   60900    334.18295   -1223.3897    247.37375   -976.01598   -531.28125    15.001575    15.001575    15.001575            0            0            0 
   61000    324.14037   -1204.0657    239.93989   -964.12585    598.42001    15.094357    15.094357    15.094357            0            0            0 
   61100    267.59594   -1194.2836    198.08375   -996.19988   -113.25986    15.086987    15.086987    15.086987            0            0            0 
   61200    297.18704   -1201.8084     219.9881   -981.82027    2078.8198    14.909711    14.909711    14.909711            0            0            0 
   61300     299.7979   -1193.8237    221.92075   -971.90293    701.74451    15.062451    15.062451    15.062451            0            0            0 
   61400    303.90833   -1178.9207    224.96343   -953.95729   -1049.2205     15.13374     15.13374     15.13374            0            0            0 
   61500    312.08276   -1210.7635    231.01442   -979.74906    359.19491    14.977353    14.977353    14.977353            0            0            0 
   61600     289.1337   -1208.2383    214.02674   -994.21152   -882.39643    15.148435    15.148435    15.148435            0            0            0 
   61700     322.0392   -1205.0904    238.38452   -966.70587   -581.31452     15.17478     15.17478     15.17478            0            0            0 
   61800    293.58074   -1216.3998    217.31859   -999.08119    1942.2847    15.013362    15.013362    15.013362            0            0            0 
   61900    296.47021   -1198.3933    219.45747   -978.93586    283.64743    15.109771    15.109771    15.109771            0            0            0 
   62000    305.05898   -1206.6968    225.81518    -980.8816   -164.80912    15.038212    15.038212    15.038212            0            0            0 
   62100    269.43965   -1213.9454    199.44852   -1014.4969    565.43587    14.907091    14.907091    14.907091            0            0            0 
   62200    299.85626   -1227.3719    221.96395   -1005.4079    2419.9705    14.834615    14.834615    14.834615            0            0            0 
   62300    308.34251   -1204.3758    228.24576   -976.13003   -767.91876     15.03516     15.03516     15.03516            0            0            0 
   62400    282.99802   -1197.4737    209.48489    -987.9888    2269.0661    14.998289    14.998289    14.998289            0            0            0 
   62500     262.4891   -1185.5977    194.30349   -991.29425   -1177.4546    15.245287    15.245287    15.245287            0            0            0 
   62600    290.86857   -1188.2318    215.31095   -972.92085   -397.51253    14.922524    14.922524    14.922524            0            0            0 
   62700    301.48685   -1183.0731    223.17096   -959.90216   -33.699112    14.843442    14.843442    14.843442            0            0            0 
   62800    298.15986   -1184.8542    220.70821   -964.14602   -248.56583    14.972859    14.972859    14.972859            0            0            0 
   62900    289.15954   -1193.2954    214.04587   -979.24955    194.69092    14.872118    14.872118    14.872118            0            0            0 
   63000     283.8374   -1182.8814    210.10624   -972.77513    -1485.004    15.051147    15.051147    15.051147            0            0            0 
   63100    307.66919   -1214.1187    227.74735   -986.37134   -571.16757    14.922039    14.922039    14.922039            0            0            0 
   63200    266.81338   -1187.3298    197.50447   -989.82531    353.85366    14.938158    14.938158    14.938158            0            0            0 
   63300    282.62798   -1187.0723    209.21098   -977.86133    404.47266    14.959524    14.959524    14.959524            0            0            0 
   63400    336.12007   -1190.8688    248.80767   -942.06112     1576.129    15.010027    15.010027    15.010027            0            0            0 
   63500    294.34727   -1198.3383    217.88601   -980.45232   -1708.9925     15.06652     15.06652     15.06652            0            0            0 
   63600    310.48458   -1225.3461     229.8314   -995.51468    223.90026    14.740888    14.740888    14.740888            0            0            0 
   63700     304.9783   -1212.1956    225.75545   -986.44014   -1375.3592     14.75904     14.75904     14.75904            0            0            0 
   63800    282.89089   -1205.3742     209.4056   -995.96856   -667.75961    14.855656    14.855656    14.855656            0            0            0 
   63900    319.32248   -1238.2866    236.37351   -1001.9131    608.97954    14.852603    14.852603    14.852603            0            0            0 
   64000    324.97356   -1231.5714    240.55664   -991.01471    689.41837    14.793978    14.793978    14.793978            0            0            0 
   64100    306.77567   -1240.7521    227.08594   -1013.6662   -117.57104    14.769585    14.769585    14.769585            0            0            0 
   64200    299.05091   -1220.3518     221.3678   -998.98396    738.77593    14.707639    14.707639    14.707639            0            0            0 
   64300    277.68796   -1215.9039    205.55421   -1010.3497   -506.92301    14.838611    14.838611    14.838611            0            0            0 
   64400    286.07979   -1245.0168    211.76613   -1033.2507    -275.0067    14.866908    14.866908    14.866908            0            0            0 
   64500    289.39186    -1243.563    214.21784   -1029.3452   -573.37395    14.821966    14.821966    14.821966            0            0            0 
   64600    308.96328   -1230.9398    228.70528   -1002.2345    1420.2095    14.857457    14.857457    14.857457            0            0            0 
   64700    281.64464   -1211.0212    208.48307   -1002.5382    1170.2524    14.971295    14.971295    14.971295            0            0            0 
   64800    287.03462   -1198.4589    212.47293   -985.98594    498.90142    15.026594    15.026594    15.026594            0            0            0 
   64900    301.47916   -1190.3304    223.16528   -967.16517   -122.87771     15.03758     15.03758     15.03758            0            0            0 
   65000    313.08481   -1207.4017    231.75618   -975.64557   -517.50628     14.99087     14.99087     14.99087            0            0            0 
   65100    317.82223    -1203.681    235.26298   -968.41801   -1497.7393     14.90547     14.90547     14.90547            0            0            0 
   65200    272.46415   -1189.2447    201.68736   -987.55737   -982.26685    14.872647    14.872647    14.872647            0            0            0 
   65300    282.25913   -1201.3782    208.93795    -992.4402    241.00322    14.896916    14.896916    14.896916            0            0            0 
   65400    293.55704   -1199.2796    217.30105   -981.97854   -130.41226    14.876932    14.876932    14.876932            0            0            0 
   65500    294.39647    -1220.488    217.92242   -1002.5656    1492.2714    14.757153    14.757153    14.757153            0            0            0 
   65600      291.851   -1219.0073    216.03817   -1002.9691    418.97549    14.786858    14.786858    14.786858            0            0            0 
   65700     284.9402   -1215.4555    210.92257    -1004.533   -971.35671     14.96849     14.96849     14.96849            0            0            0 
   65800    296.12978   -1241.3594    219.20548    -1022.154    1165.0167    14.879743    14.879743    14.879743            0            0            0 
   65900    305.17989   -1240.8492    225.90468   -1014.9445    1813.2662    14.936106    14.936106    14.936106            0            0            0 
   66000    282.53621   -1226.6074    209.14305   -1017.4644   -953.42265     15.08148     15.08148     15.08148            0            0            0 
   66100    289.61855   -1227.9493    214.38564   -1013.5637    370.65981    14.954312    14.954312    14.954312            0            0            0 
   66200    279.02761   -1225.9361    206.54586   -1019.3903    652.19816    15.033873    15.033873    15.033873            0            0            0 
   66300    274.43925   -1218.4237     203.1494   -1015.2743   -726.96757    15.164063    15.164063    15.164063            0            0            0 
   66400    318.92066   -1223.8468    236.07608    -987.7707    1026.9624    15.022241    15.022241    15.022241            0            0            0 
   66500    297.24136   -1201.7227     220.0283   -981.69441   -1326.6568     15.20181     15.20181     15.20181            0            0            0 
   66600    288.01245   -1175.1559    213.19675   -961.95913    912.52218     15.01426     15.01426     15.01426            0            0            0 
   66700    322.62008   -1207.1114    238.81451   -968.29692   -480.83051    14.938225    14.938225    14.938225            0            0            0 
   66800     324.1631    -1194.296    239.95671   -954.33931    488.99205      14.9647      14.9647      14.9647            0            0            0 
   66900    292.44931   -1212.8234    216.48107   -996.34237   -295.57253    15.226917    15.226917    15.226917            0            0            0 
   67000    277.27941   -1188.1448    205.25178   -982.89305     467.4761    15.300644    15.300644    15.300644            0            0            0 
   67100     295.0811   -1203.7053    218.42921   -985.27608   -1122.0378    15.170949    15.170949    15.170949            0            0            0 
   67200    338.58256   -1193.4773    250.63049    -942.8468    1091.7361    15.076885    15.076885    15.076885            0            0            0 
   67300    293.10722   -1205.1662    216.96807   -988.19814    749.32948    15.167382    15.167382    15.167382            0            0            0 
   67400    307.58402   -1215.0782     227.6843   -987.39391   -235.02848    15.172704    15.172704    15.172704            0            0            0 
   67500    302.78519   -1190.0709    224.13204    -965.9389    549.49431    15.115374    15.115374    15.115374            0            0            0 
   67600    320.52389   -1201.2053    237.26284   -963.94243    2016.5853    14.969874    14.969874    14.969874            0            0            0 
   67700    259.95885   -1187.8424    192.43051   -995.41189   -772.29392    15.047688    15.047688    15.047688            0            0            0 
   67800    277.52597   -1243.3426     205.4343   -1037.9083   -1107.6146    14.830814    14.830814    14.830814            0            0            0 
   67900    277.00986   -1248.5726    205.05226   -1043.5204   -976.21921    14.790573    14.790573    14.790573            0            0            0 
   68000    254.01777    -1240.376    188.03272   -1052.3433   -936.23751    14.920043    14.920043    14.920043            0            0            0 
   68100    301.57501   -1217.0597    223.23622   -993.82348    1200.1794    14.874784    14.874784    14.874784            0            0            0 
   68200    274.32049   -1234.9427    203.06149   -1031.8812    2511.3546    14.655101    14.655101    14.655101            0            0            0 
   68300    298.69015   -1241.8605    221.10075   -1020.7598    -95.22825    14.838095    14.838095    14.838095            0            0            0 
   68400    292.93094   -1226.6281    216.83758   -1009.7905   -259.33665     14.86612     14.86612     14.86612            0            0            0 
   68500     318.6749   -1233.8418    235.89415   -997.94769     -994.803    14.720807    14.720807    14.720807            0            0            0 
   68600    273.44203   -1212.3447    202.41122   -1009.9334    2445.9991    14.638028    14.638028    14.638028            0            0            0 
   68700    291.58143   -1208.4962    215.83864   -992.65758    231.48224    14.817574    14.817574    14.817574            0            0            0 
   68800    290.46132   -1224.4303    215.00949   -1009.4208    389.06754    14.724723    14.724723    14.724723            0            0            0 
   68900     282.0914   -1222.8228    208.81378    -1014.009    59.809591    14.710591    14.710591    14.710591            0            0            0 
   69000    321.63568    -1219.161    238.08583   -981.07517   -62.650787    14.878367    14.878367    14.878367            0            0            0 
   69100    305.65704   -1208.7359    226.25788   -982.47801   -1078.0854    14.951682    14.951682    14.951682            0            0            0 
   69200    307.16548   -1216.6823    227.37448   -989.30784   -336.51109    14.935232    14.935232    14.935232            0            0            0 
   69300    287.80166   -1203.8796    213.04072   -990.83893    1311.4476    14.841412    14.841412    14.841412            0            0            0 
   69400    289.24443   -1208.8993     214.1087   -994.79059    878.26019    14.986292    14.986292    14.986292            0            0            0 
   69500    305.10216   -1212.5843    225.84714   -986.73711   -1409.6249    15.179684    15.179684    15.179684            0            0            0 
   69600    296.88183   -1201.9054    219.76217   -982.14325       2498.5    14.817487    14.817487    14.817487            0            0            0 
   69700     279.0869    -1157.759    206.58975   -951.16924   -598.16595    14.949693    14.949693    14.949693            0            0            0 
   69800    322.48175   -1207.3529    238.71212   -968.64074    845.74762    14.925451    14.925451    14.925451            0            0            0 
   69900    305.05461   -1191.7417    225.81195   -965.92973   -1093.7602    14.941938    14.941938    14.941938            0            0            0 
   70000    262.05902   -1207.0213    193.98512   -1013.0362    670.25326     14.75399     14.75399     14.75399            0            0            0 
   70100    272.54416   -1203.2608    201.74659   -1001.5142   -878.10549    14.930937    14.930937    14.930937            0            0            0 
   70200    323.95035   -1212.5643    239.79922   -972.76505    925.25929    14.976712    14.976712    14.976712            0            0            0 
   70300    271.12089   -1190.7274    200.69304   -990.03441   -978.01568    15.111027    15.111027    15.111027            0            0            0 
   70400    294.99422   -1204.4729     218.3649   -986.10797    453.79145    14.902972    14.902972    14.902972            0            0            0 
   70500    301.22001   -1231.3654    222.97344   -1008.3919     774.6776    14.905307    14.905307    14.905307            0            0            0 
   70600    287.07132     -1176.81    212.50009   -964.30995    -1063.511    15.211472    15.211472    15.211472            0            0            0 
   70700    318.02665   -1201.5382     235.4143   -966.12386    1174.9928    15.018777    15.018777    15.018777            0            0            0 
   70800    282.45532   -1195.4385    209.08317   -986.35536    2024.1402    14.967275    14.967275    14.967275            0            0            0 
   70900    271.98608   -1185.8149    201.33348   -984.48139   -1787.6449     15.10488     15.10488     15.10488            0            0            0 
   71000    277.37932   -1204.3214    205.32574    -998.9957   -1202.3645    14.957558    14.957558    14.957558            0            0            0 
   71100    294.00166   -1201.5083    217.63017   -983.87818    1251.6055    14.943923    14.943923    14.943923            0            0            0 
   71200    281.52404   -1178.8083    208.39381   -970.41445   -1798.1198     15.05918     15.05918     15.05918            0            0            0 
   71300    277.87228    -1188.363    205.69065   -982.67235    61.433455    14.963931    14.963931    14.963931            0            0            0 
   71400    283.63028   -1190.6227    209.95292   -980.66976   -287.25508    15.150803    15.150803    15.150803            0            0            0 
   71500    285.85667   -1195.2047    211.60096   -983.60375   -287.87141    15.146128    15.146128    15.146128            0            0            0 
   71600    273.26361   -1171.9729    202.27915   -969.69374    549.71409    15.073251    15.073251    15.073251            0            0            0 
   71700    300.81403   -1157.1145    222.67292   -934.44162    1138.4722    15.139266    15.139266    15.139266            0            0            0 
   71800       316.61   -1168.8324    234.36564    -934.4668    199.25522    15.121613    15.121613    15.121613            0            0            0 
   71900    292.75411   -1176.7886    216.70669   -960.08191   -1850.1412    15.053096    15.053096    15.053096            0            0            0 
   72000    328.19299   -1196.2821    242.93977    -953.3423    730.26495    14.922349    14.922349    14.922349            0            0            0 
   72100     305.9261   -1194.1838    226.45705   -967.72673   -1438.7095    15.169574    15.169574    15.169574            0            0            0 
   72200    283.47932   -1205.5735    209.84117   -995.73228    705.30521    14.967234    14.967234    14.967234            0            0            0 
   72300    288.68681   -1211.6321    213.69593   -997.93618   -1716.8185     15.12517     15.12517     15.12517            0            0            0 
   72400    278.55169   -1207.7025    206.19357    -1001.509   -276.01508    15.103642    15.103642    15.103642            0            0            0 
   72500    316.49969   -1218.5292    234.28399   -984.24522   -1032.6898    14.942415    14.942415    14.942415            0            0            0 
   72600    310.90919   -1206.3452    230.14571   -976.19951    1037.0731    14.749531    14.749531    14.749531            0            0            0 
   72700    313.84284   -1203.3972     232.3173   -971.07994    74.682527    14.858029    14.858029    14.858029            0            0            0 
   72800    301.78781   -1207.4542    223.39375   -984.06048   -127.59775    14.884685    14.884685    14.884685            0            0            0 
   72900    304.73401   -1242.6489    225.57463   -1017.0743   -824.44056    14.869443    14.869443    14.869443            0            0            0 
   73000    274.52905   -1231.4075    203.21587   -1028.1916    1988.1098     14.82472     14.82472     14.82472            0            0            0 
   73100    289.65484   -1235.8945     214.4125    -1021.482   -184.96097    14.919224    14.919224    14.919224            0            0            0 
   73200    293.67743   -1224.4784    217.39016   -1007.0882    679.11436    14.862964    14.862964    14.862964            0            0            0 
   73300    297.52725   -1229.6869    220.23994    -1009.447    635.40719    14.936251    14.936251    14.936251            0            0            0 
   73400    323.67649   -1208.6213     239.5965   -969.02479   -2287.7568     15.22286     15.22286     15.22286            0            0            0 
   73500    280.31331   -1208.9668    207.49758   -1001.4692    1741.3044    15.049173    15.049173    15.049173            0            0            0 
   73600     301.0047   -1253.3476    222.81406   -1030.5335   -884.95892    14.978506    14.978506    14.978506            0            0            0 
   73700     288.7118   -1234.0899    213.71443   -1020.3755   -629.99464    15.042422    15.042422    15.042422            0            0            0 
   73800    307.94551   -1228.9922    227.95189   -1001.0403    675.46675    14.979225    14.979225    14.979225            0            0            0 
   73900    324.15598    -1224.976    239.95144    -985.0246   -533.88214    15.055135    15.055135    15.055135            0            0            0 
   74000    303.77016   -1216.3252    224.86115   -991.46406   -482.21629    15.037555    15.037555    15.037555            0            0            0 
   74100    311.17538   -1231.9401    230.34275   -1001.5974    3160.9571    14.918427    14.918427    14.918427            0            0            0 
   74200    314.46007   -1198.8191    232.77419   -966.04495    -1217.384    15.111393    15.111393    15.111393            0            0            0 
   74300    283.85143   -1212.5528    210.11662   -1002.4362    853.53383    15.001667    15.001667    15.001667            0            0            0 
   74400    316.44199   -1186.1069    234.24127   -951.86566   -1055.0858     15.04377     15.04377     15.04377            0            0            0 
   74500    320.24421   -1180.9471    237.05581   -943.89125   -583.04951    15.091565    15.091565    15.091565            0            0            0 
   74600    319.18728   -1186.4123    236.27343   -950.13885    480.27921     15.18296     15.18296     15.18296            0            0            0 
   74700    313.59305   -1203.3351     232.1324   -971.20267    2.3302476    15.241797    15.241797    15.241797            0            0            0 
   74800    298.78478   -1200.1576     221.1708    -978.9868   -401.07117    15.151456    15.151456    15.151456            0            0            0 
   74900    281.58011   -1184.7904    208.43531   -976.35504   -683.73505    15.027201    15.027201    15.027201            0            0            0 
   75000    287.15859   -1188.1709    212.56469   -975.60623   -1697.2547    15.112269    15.112269    15.112269            0            0            0 
   75100    301.54119    -1218.377    223.21119   -995.16579   -453.68192    15.019022    15.019022    15.019022            0            0            0 
   75200    314.04291   -1203.5934    232.46539   -971.12798   -4.5779919    14.962847    14.962847    14.962847            0            0            0 
   75300    294.38279   -1212.3318    217.91229   -994.41949   -553.61259    15.024276    15.024276    15.024276            0            0            0 
   75400    307.04279   -1192.7194    227.28367   -965.43576    -665.2047    15.129233    15.129233    15.129233            0            0            0 
   75500    327.81959   -1187.1951    242.66337   -944.53173    1351.7509    15.027377    15.027377    15.027377            0            0            0 
   75600    306.81306   -1188.3424    227.11361   -961.22879   -132.47006    15.164098    15.164098    15.164098            0            0            0 
   75700    295.80924   -1188.3613    218.96821   -969.39313   -415.47112     15.15912     15.15912     15.15912            0            0            0 
   75800    292.29407   -1167.8951    216.36616    -951.5289    1533.9374    14.929963    14.929963    14.929963            0            0            0 
   75900    298.60726   -1211.1635    221.03939   -990.12409    371.31955    15.089379    15.089379    15.089379            0            0            0 
   76000    291.67951   -1203.5562    215.91124   -987.64501    -1261.375    15.288565    15.288565    15.288565            0            0            0 
   76100    299.52048   -1211.1609    221.71539   -989.44553    2245.9176    15.178962    15.178962    15.178962            0            0            0 
   76200    290.88902   -1213.0206    215.32609   -997.69451   -916.87225    15.409937    15.409937    15.409937            0            0            0 
   76300    300.39804   -1198.6252    222.36499    -976.2602    661.41212    15.320956    15.320956    15.320956            0            0            0 
   76400    309.89387    -1160.984    229.39413   -931.58982   -1867.6627    15.524059    15.524059    15.524059            0            0            0 
   76500    286.80842   -1185.0826    212.30549   -972.77714    370.97436    15.287152    15.287152    15.287152            0            0            0 
   76600    314.46949   -1217.6998    232.78116   -984.91864    309.27295    14.922359    14.922359    14.922359            0            0            0 
   76700    312.58149   -1220.4083     231.3836    -989.0247    1326.7354    14.810961    14.810961    14.810961            0            0            0 
   76800    306.65623   -1209.9284    226.99752   -982.93091    -511.0464    14.972056    14.972056    14.972056            0            0            0 
   76900    298.00506   -1215.0481    220.59362   -994.45445   -2120.3944    15.034838    15.034838    15.034838            0            0            0 
   77000    322.86704   -1213.9177    238.99732   -974.92036   -327.94087    14.940422    14.940422    14.940422            0            0            0 
   77100    271.14007   -1181.3854    200.70723   -980.67818    402.98417    14.875646    14.875646    14.875646            0            0            0 
   77200    315.57862    -1204.062    233.60218   -970.45979    188.47027    14.925541    14.925541    14.925541            0            0            0 
   77300    334.87596   -1174.7082    247.88674   -926.82146    233.38826    15.045748    15.045748    15.045748            0            0            0 
   77400    321.93109   -1178.5341     238.3045    -940.2296    1015.6168    15.055029    15.055029    15.055029            0            0            0 
   77500    312.82765   -1192.3232    231.56582   -960.75741    455.73614    15.104417    15.104417    15.104417            0            0            0 
   77600    310.16606   -1179.9203    229.59562    -950.3247    2342.8511    14.912946    14.912946    14.912946            0            0            0 
   77700     316.7114   -1182.5193    234.44071   -948.07857   -690.00457    15.159066    15.159066    15.159066            0            0            0 
   77800    321.14334   -1200.7304    237.72138   -963.00906    809.63987     15.20572     15.20572     15.20572            0            0            0 
   77900    301.75125   -1172.9389    223.36668   -949.57226   -160.22416    15.247528    15.247528    15.247528            0            0            0 
   78000    298.06204   -1205.4748     220.6358   -984.83903    1761.8451    14.996311    14.996311    14.996311            0            0            0 
   78100    271.53676   -1215.7779    201.00087    -1014.777   -1910.4494    15.056372    15.056372    15.056372            0            0            0 
   78200    269.82932   -1200.2283    199.73697   -1000.4913    846.31864     15.01399     15.01399     15.01399            0            0            0 
   78300    308.57638   -1203.7305    228.41888   -975.31161   -837.85402    15.152149    15.152149    15.152149            0            0            0 
   78400    305.57655   -1186.8446     226.1983   -960.64626    107.27532    15.113855    15.113855    15.113855            0            0            0 
   78500    293.22437   -1178.4911    217.05479   -961.43627   -1038.2325     15.24827     15.24827     15.24827            0            0            0 
   78600    310.36133   -1183.3464    229.74016    -953.6062   -165.50039    15.154161    15.154161    15.154161            0            0            0 
   78700    334.32631   -1187.2994    247.47987   -939.81954    474.96383    15.142016    15.142016    15.142016            0            0            0 
   78800    321.05926   -1198.5301    237.65914   -960.87096   -727.78753    15.051274    15.051274    15.051274            0            0            0 
   78900    316.06615   -1190.6524    233.96307    -956.6893    29.089126    15.039123    15.039123    15.039123            0            0            0 
   79000    290.17487   -1175.8913    214.79745   -961.09386   -317.66439    15.050043    15.050043    15.050043            0            0            0 
   79100    316.23779   -1183.4167    234.09012   -949.32653    2647.7977    14.959769    14.959769    14.959769            0            0            0 
   79200    279.62893   -1172.9999    206.99098   -966.00896    782.60573    15.176554    15.176554    15.176554            0            0            0 
   79300    275.10249   -1207.8972    203.64035   -1004.2569    193.19469    15.204428    15.204428    15.204428            0            0            0 
   79400    307.56456   -1194.5762     227.6699   -966.90626   -570.97191    15.239826    15.239826    15.239826            0            0            0 
   79500    275.48754   -1195.2596    203.92538   -991.33418    1375.6309    15.109227    15.109227    15.109227            0            0            0 
   79600    303.63158   -1211.5401    224.75857   -986.78157   -3078.6505    15.207635    15.207635    15.207635            0            0            0 
   79700    298.04986   -1183.8526    220.62679   -963.22581    1000.9185    15.032668    15.032668    15.032668            0            0            0 
   79800    306.43251   -1225.3991    226.83191   -998.56715    58.443075    14.958355    14.958355    14.958355            0            0            0 
   79900    282.85358   -1213.6647    209.37797   -1004.2867     492.7616    14.960557    14.960557    14.960557            0            0            0 
   80000    285.89667   -1229.5821    211.63058   -1017.9515    638.12377    14.997898    14.997898    14.997898            0            0            0 
   80100     298.8387   -1230.8677    221.21072    -1009.657    1106.7581    14.807099    14.807099    14.807099            0            0            0 
   80200     276.3668   -1209.4553    204.57624   -1004.8791   -1442.7355    14.965535    14.965535    14.965535            0            0            0 
   80300    262.21113    -1206.585    194.09772   -1012.4872   -621.40664      14.8899      14.8899      14.8899            0            0            0 
   80400    300.51095    -1203.471    222.44857   -981.02243    322.54085     14.98422     14.98422     14.98422            0            0            0 
   80500    313.46034   -1210.4167    232.03416   -978.38257   -1315.0096    15.029524    15.029524    15.029524            0            0            0 
   80600    304.08582   -1247.1386    225.09481   -1022.0438    918.47539    14.821903    14.821903    14.821903            0            0            0 
   80700    308.78574   -1223.3456    228.57386   -994.77172   -1331.6493     14.98892     14.98892     14.98892            0            0            0 
   80800    293.45614   -1204.7913    217.22636   -987.56492     2480.074    14.788633    14.788633    14.788633            0            0            0 
   80900    295.34994   -1202.2021    218.62821   -983.57389   -887.78049    14.895663    14.895663    14.895663            0            0            0 
   81000    328.37714   -1198.6748    243.07608   -955.59872   -679.01156    14.712197    14.712197    14.712197            0            0            0 
   81100      313.123   -1232.7824    231.78445    -1000.998    508.79866    14.719231    14.719231    14.719231            0            0            0 
   81200    306.28118   -1207.5258    226.71989   -980.80593   -699.50906    15.038179    15.038179    15.038179            0            0            0 
   81300    287.64806   -1225.6649    212.92702   -1012.7379    509.31754    14.898399    14.898399    14.898399            0            0            0 
   81400    269.01392   -1222.3758    199.13339   -1023.2424     129.7406    14.974515    14.974515    14.974515            0            0            0 
   81500    296.24405   -1224.9033    219.29006   -1005.6132   -936.31061    15.173211    15.173211    15.173211            0            0            0 
   81600    275.66083   -1211.5173    204.05366   -1007.4637    2656.5814    14.894505    14.894505    14.894505            0            0            0 
   81700    306.14283   -1193.3259    226.61748   -966.70837   -1384.4872    15.196426    15.196426    15.196426            0            0            0 
   81800    301.35209   -1189.1906    223.07121   -966.11944    -1012.544    15.113022    15.113022    15.113022            0            0            0 
   81900    313.34281   -1205.4199    231.94716   -973.47278     -1501.78    15.049893    15.049893    15.049893            0            0            0 
   82000    293.31716   -1205.6484    217.12348   -988.52496   -175.83725      14.9856      14.9856      14.9856            0            0            0 
   82100    290.04607   -1209.8616     214.7021   -995.15952    571.91132    14.913076    14.913076    14.913076            0            0            0 
   82200    285.66649   -1236.6359    211.46019   -1025.1757    116.18243    14.806323    14.806323    14.806323            0            0            0 
   82300    264.96208     -1211.54    196.13407    -1015.406    1264.6039     14.83916     14.83916     14.83916            0            0            0 
   82400    324.32652   -1205.8387    240.07768   -965.76102   -1294.8966     15.01355     15.01355     15.01355            0            0            0 
   82500    322.12462   -1207.5008    238.44775   -969.05302    542.60838    14.953291    14.953291    14.953291            0            0            0 
   82600    306.81107   -1209.6375    227.11214   -982.52535   -723.34687    14.937514    14.937514    14.937514            0            0            0 
   82700    315.34738     -1198.77    233.43101   -965.33904   -614.29555    14.909682    14.909682    14.909682            0            0            0 
   82800    321.53497   -1228.6877    238.01127   -990.67645    2323.5729    14.752514    14.752514    14.752514            0            0            0 
   82900    281.44208   -1213.6541    208.33313    -1005.321    727.84593    14.821771    14.821771    14.821771            0            0            0 
   83000    287.21073   -1187.1324    212.60329   -974.52913    187.30495    15.055884    15.055884    15.055884            0            0            0 
   83100    317.70126   -1197.1667    235.17343   -961.99324   -1624.7515    15.081631    15.081631    15.081631            0            0            0 
   83200    325.31536   -1225.2095    240.80965   -984.39983   -1364.0832    14.866423    14.866423    14.866423            0            0            0 
   83300    297.97874   -1205.2353    220.57414   -984.66111   -662.64531     14.88905     14.88905     14.88905            0            0            0 
   83400    304.45837    -1202.024    225.37059   -976.65337    417.99851    14.870209    14.870209    14.870209            0            0            0 
   83500    304.06137   -1216.8503    225.07672   -991.77355   -324.73056    14.954451    14.954451    14.954451            0            0            0 
   83600    300.24274    -1226.758    222.25003    -1004.508   -2090.3978    15.132663    15.132663    15.132663            0            0            0 
   83700    284.32224   -1227.1371    210.46513    -1016.672    620.71513     14.89342     14.89342     14.89342            0            0            0 
   83800    294.92913   -1264.1508    218.31672   -1045.8341    300.31827    14.742675    14.742675    14.742675            0            0            0 
   83900    313.70652   -1245.2447    232.21639   -1013.0284    1065.4336    14.664939    14.664939    14.664939            0            0            0 
   84000    281.24051   -1219.2991    208.18393   -1011.1152   -418.85448     14.88565     14.88565     14.88565            0            0            0 
   84100    267.06649   -1188.6863    197.69183   -990.99443    -89.11373     15.02246     15.02246     15.02246            0            0            0 
   84200    296.47336   -1231.3875    219.45981   -1011.9277   -352.44584    14.975686    14.975686    14.975686            0            0            0 
   84300    264.85507   -1203.6356    196.05486   -1007.5807   -1772.5031    14.963171    14.963171    14.963171            0            0            0 
   84400    284.19137   -1190.9421    210.36826   -980.57383   -934.47003    14.877747    14.877747    14.877747            0            0            0 
   84500    283.40918   -1205.7343    209.78925   -995.94508   -365.46181    14.993496    14.993496    14.993496            0            0            0 
   84600     292.8869    -1200.181    216.80498   -983.37597    1188.1278    14.982017    14.982017    14.982017            0            0            0 
   84700    298.38581   -1204.2184    220.87547   -983.34295   -3118.9046     15.16088     15.16088     15.16088            0            0            0 
   84800    303.49848   -1210.8693    224.66004   -986.20927   -715.17003    15.058353    15.058353    15.058353            0            0            0 
   84900    296.18883   -1171.3925    219.24919   -952.14331   -1163.6032    15.147128    15.147128    15.147128            0            0            0 
   85000    293.04431   -1196.4375    216.92151   -979.51598    1445.1824    15.167836    15.167836    15.167836            0            0            0 
   85100    298.18217   -1211.0751    220.72473   -990.35038    1771.3594    15.056672    15.056672    15.056672            0            0            0 
   85200    295.10906   -1227.8702    218.44991   -1009.4203   -593.23612    14.984394    14.984394    14.984394            0            0            0 
   85300    306.14481   -1207.4009    226.61895   -980.78196    -964.2895    14.984589    14.984589    14.984589            0            0            0 
   85400    329.61138   -1238.0788    243.98971   -994.08912   -361.56988    14.832318    14.832318    14.832318            0            0            0 
   85500    302.23757   -1199.5057    223.72668   -975.77903    1221.3072    14.866918    14.866918    14.866918            0            0            0 
   85600    273.59954    -1196.168    202.52782   -993.64021   -236.20854    15.101266    15.101266    15.101266            0            0            0 
   85700    282.40461   -1195.9288    209.04563   -986.88318    1929.7556     15.18173     15.18173     15.18173            0            0            0 
   85800     283.4247   -1192.4193    209.80074   -982.61859   -1525.5432    15.371854    15.371854    15.371854            0            0            0 
   85900     301.3055   -1217.6393    223.03673    -994.6026   -244.78112    15.237912    15.237912    15.237912            0            0            0 
   86000    274.22079   -1223.4819    202.98769   -1020.4942   -359.69905    15.166986    15.166986    15.166986            0            0            0 
   86100    253.46583   -1219.6949    187.62415   -1032.0708    201.73993    14.980951    14.980951    14.980951            0            0            0 
   86200    314.33091   -1204.0836    232.67858   -971.40501    -609.4762    14.966636    14.966636    14.966636            0            0            0 
   86300    313.82016   -1163.1028     232.3005   -930.80234     2258.072    14.846898    14.846898    14.846898            0            0            0 
   86400    275.12874   -1180.8895    203.65978   -977.22972   -19.038983    14.997919    14.997919    14.997919            0            0            0 
   86500    313.96287   -1195.6785    232.40615   -963.27232   -1706.1806    15.124334    15.124334    15.124334            0            0            0 
   86600    326.62086    -1203.272    241.77603   -961.49596    1084.2093    14.997135    14.997135    14.997135            0            0            0 
   86700    296.42059   -1178.0836    219.42074   -958.66282   -1826.4238    15.430552    15.430552    15.430552            0            0            0 
   86800    266.48861    -1183.939    197.26406   -986.67489   -723.49226    15.436238    15.436238    15.436238            0            0            0 
   86900    299.56808   -1207.8796    221.75062   -986.12896   -515.42201    15.433137    15.433137    15.433137            0            0            0 
   87000    311.02898   -1214.0346    230.23438   -983.80026    2260.9832    15.203059    15.203059    15.203059            0            0            0 
   87100    282.34236   -1224.9118    208.99956   -1015.9123   -123.88764    15.357443    15.357443    15.357443            0            0            0 
   87200    287.94379   -1226.2221    213.14592   -1013.0762   -1546.2525    15.543635    15.543635    15.543635            0            0            0 
   87300    261.72889   -1187.1483    193.74075   -993.40759    -241.3427    15.350722    15.350722    15.350722            0            0            0 
   87400    309.35202   -1205.6938    228.99303   -976.70082    441.86199     15.21706     15.21706     15.21706            0            0            0 
   87500    317.92166   -1196.6042    235.33658   -961.26762    1012.1696    15.236719    15.236719    15.236719            0            0            0 
   87600     283.2814   -1228.4438    209.69466   -1018.7492   -966.55989    15.271759    15.271759    15.271759            0            0            0 
   87700    281.57865   -1197.0272    208.43423   -988.59294   -187.08867     15.19432     15.19432     15.19432            0            0            0 
   87800    314.33129   -1208.3606    232.67886   -975.68178   -413.40689    15.168641    15.168641    15.168641            0            0            0 
   87900    312.53341   -1207.7449    231.34801    -976.3969    1518.9661    15.173605    15.173605    15.173605            0            0            0 
   88000    310.57393    -1192.076    229.89754   -962.17849    932.05613     15.27928     15.27928     15.27928            0            0            0 
   88100    310.70858   -1193.4017    229.99721   -963.40447   -475.91364    15.345575    15.345575    15.345575            0            0            0 
   88200    287.12977   -1220.1771    212.54336   -1007.6338   -775.56038    15.263293    15.263293    15.263293            0            0            0 
   88300    284.63548   -1218.5875      210.697   -1007.8905    4804.9029    14.917948    14.917948    14.917948            0            0            0 
   88400    275.62247   -1237.5718    204.02526   -1033.5466   -1158.4388    14.989497    14.989497    14.989497            0            0            0 
   88500    314.05319   -1224.6703    232.47301   -992.19727     125.4678    14.878807    14.878807    14.878807            0            0            0 
   88600    285.12089   -1204.1306    211.05632   -993.07432    -952.1786    15.165504    15.165504    15.165504            0            0            0 
   88700    305.20455   -1229.1883    225.92294   -1003.2654   -513.95189    15.114309    15.114309    15.114309            0            0            0 
   88800    311.10984   -1222.0472    230.29423   -991.75296     387.3017    14.979125    14.979125    14.979125            0            0            0 
   88900    292.06675   -1211.5277    216.19788   -995.32981    -1253.443    15.051167    15.051167    15.051167            0            0            0 
   89000    294.93685   -1226.0491    218.32243   -1007.7267    433.95157    15.017097    15.017097    15.017097            0            0            0 
   89100    328.07908   -1222.1688    242.85545   -979.31331   -399.31405    15.116794    15.116794    15.116794            0            0            0 
   89200    307.12436   -1203.3684    227.34405   -976.02436   -1092.3527    15.250015    15.250015    15.250015            0            0            0 
   89300    303.32562   -1210.1452    224.53209   -985.61307   -1288.8259    15.231445    15.231445    15.231445            0            0            0 
   89400    277.30866   -1198.5144    205.27344   -993.24092    813.76894     15.08521     15.08521     15.08521            0            0            0 
   89500     301.6142   -1215.6476    223.26524   -992.38236   -1001.7354    15.156937    15.156937    15.156937            0            0            0 
   89600    321.54552   -1228.2805    238.01909   -990.26138     754.8692    15.203315    15.203315    15.203315            0            0            0 
   89700    318.70847   -1188.4888      235.919   -952.56979   -762.10163    15.258029    15.258029    15.258029            0            0            0 
   89800    268.29494   -1181.3492    198.60117   -982.74805   -951.02792    15.242951    15.242951    15.242951            0            0            0 
   89900    292.73879   -1193.0692    216.69535    -976.3738    -62.33672    15.181358    15.181358    15.181358            0            0            0 
   90000    299.58709   -1209.4946     221.7647   -987.72992   -430.63996    15.105751    15.105751    15.105751            0            0            0 
   90100    287.19676   -1204.7503    212.59295   -992.15732     720.6259    14.949027    14.949027    14.949027            0            0            0 
   90200    288.92022   -1205.4852    213.86871   -991.61652   -2026.5195    15.058157    15.058157    15.058157            0            0            0 
   90300     297.8909    -1194.329    220.50912   -973.81993   -1996.0461    15.007079    15.007079    15.007079            0            0            0 
   90400    322.82419   -1218.2958     238.9656   -979.33018    143.93548     14.90222     14.90222     14.90222            0            0            0 
   90500    288.30401   -1220.0617    213.41257   -1006.6491   -2939.9292    15.147566    15.147566    15.147566            0            0            0 
   90600    281.24723   -1202.0142     208.1889   -993.82535   -162.75475    14.898331    14.898331    14.898331            0            0            0 
   90700    293.08104   -1186.3546    216.94869   -969.40589    436.29424    14.911937    14.911937    14.911937            0            0            0 
   90800    306.30964   -1207.7831    226.74096    -981.0421   -293.03677    14.942055    14.942055    14.942055            0            0            0 
   90900    276.75083   -1197.9801    204.86051   -993.11961    779.29848    14.867976    14.867976    14.867976            0            0            0 
   91000    311.64166   -1222.1688     230.6879   -991.48086   -593.74873    14.914708    14.914708    14.914708            0            0            0 
   91100     280.9644   -1219.6867    207.97954   -1011.7072    6.5897366    14.932297    14.932297    14.932297            0            0            0 
   91200    301.87913   -1245.8059    223.46134   -1022.3445   -2179.2251    14.913416    14.913416    14.913416            0            0            0 
   91300    304.94937    -1214.873    225.73404   -989.13896   -1120.5595    15.019773    15.019773    15.019773            0            0            0 
   91400    297.77856   -1208.7283    220.42596   -988.30231     282.6392    15.064486    15.064486    15.064486            0            0            0 
   91500    301.50701   -1186.2203    223.18589   -963.03438   -806.54825    15.129486    15.129486    15.129486            0            0            0 
   91600    288.75397   -1182.7888    213.74565   -969.04314    1010.5117    15.074851    15.074851    15.074851            0            0            0 
   91700    302.80787    -1194.049    224.14883   -969.90015    159.93819    15.000956    15.000956    15.000956            0            0            0 
   91800    298.42866   -1203.9016    220.90719   -982.99442    1236.6587     15.00564     15.00564     15.00564            0            0            0 
   91900    295.20199   -1185.3008    218.51869   -966.78211    728.06516    15.212366    15.212366    15.212366            0            0            0 
   92000    314.63974   -1211.2555    232.90719   -978.34829    389.65543    15.174212    15.174212    15.174212            0            0            0 
   92100    316.31733   -1215.7252      234.149   -981.57616   -232.79355    15.029572    15.029572    15.029572            0            0            0 
   92200    308.39104   -1203.2773    228.28169   -974.99562   -311.48551    15.196801    15.196801    15.196801            0            0            0 
   92300    282.81227   -1190.8977     209.3474   -981.55029   -164.06371    15.134943    15.134943    15.134943            0            0            0 
   92400     290.9071   -1212.9525    215.33947   -997.61301    -1054.302    15.054573    15.054573    15.054573            0            0            0 
   92500    285.16813   -1200.7422    211.09128   -989.65088    380.84929     15.04268     15.04268     15.04268            0            0            0 
   92600    297.98907   -1211.2627    220.58179   -990.68092    127.32124    15.125972    15.125972    15.125972            0            0            0 
   92700    305.57045   -1199.5084    226.19379   -973.31464    47.884869    15.173771    15.173771    15.173771            0            0            0 
   92800    301.82598   -1201.7885      223.422   -978.36653    1012.8544    15.052936    15.052936    15.052936            0            0            0 
   92900    335.96805   -1213.2475    248.69514   -964.55234    519.67163    15.090364    15.090364    15.090364            0            0            0 
   93000     290.4155   -1181.7403    214.97557   -966.76468    365.52756    15.135583    15.135583    15.135583            0            0            0 
   93100    309.58931   -1219.2919    229.16869    -990.1232   -731.66328    15.140952    15.140952    15.140952            0            0            0 
   93200    313.02273   -1217.7621    231.71022   -986.05184   -1673.9617    15.109909    15.109909    15.109909            0            0            0 
   93300    326.53859   -1182.2387    241.71513   -940.52355    2149.3939    14.901712    14.901712    14.901712            0            0            0 
   93400     308.0646   -1169.8784    228.04005   -941.83832   -960.56573    15.089161    15.089161    15.089161            0            0            0 
   93500    305.56191   -1188.9191    226.18747   -962.73164    1938.7352    15.045263    15.045263    15.045263            0            0            0 
   93600    310.23268   -1190.8545    229.64493   -961.20955    1027.7766    15.031008    15.031008    15.031008            0            0            0 
   93700    299.10629   -1195.8944    221.40879   -974.48563   -190.35096    15.001519    15.001519    15.001519            0            0            0 
   93800     319.4432   -1202.0848    236.46288    -965.6219    1425.6023    14.949503    14.949503    14.949503            0            0            0 
   93900    304.63294   -1207.3517    225.49981   -981.85192   -1149.4561    15.188039    15.188039    15.188039            0            0            0 
   94000    313.96739   -1215.4135    232.40949   -983.00402    429.75227    14.916953    14.916953    14.916953            0            0            0 
   94100    296.29163   -1204.4826    219.32529   -985.15727    1653.7763    14.888747    14.888747    14.888747            0            0            0 
   94200    282.43752   -1206.4577    209.06999   -997.38766    732.30006    14.894091    14.894091    14.894091            0            0            0 
   94300     271.3968   -1195.1935    200.89727   -994.29619    9.7486054    14.834884    14.834884    14.834884            0            0            0 
   94400    296.80335   -1221.7516    219.70408   -1002.0475    623.75532    14.771167    14.771167    14.771167            0            0            0 
   94500    270.56323   -1225.3676    200.28024   -1025.0874   -445.20208    14.828629    14.828629    14.828629            0            0            0 
   94600    282.84407   -1212.7096    209.37094   -1003.3386   -248.92385    14.864745    14.864745    14.864745            0            0            0 
   94700    290.23495    -1203.989    214.84192    -989.1471    58.762817    14.985146    14.985146    14.985146            0            0            0 
   94800     313.1585   -1226.9504    231.81072   -995.13963    -123.8773    14.779333    14.779333    14.779333            0            0            0 
   94900    298.84734   -1204.9309    221.21711   -983.71376    1890.2303    14.679544    14.679544    14.679544            0            0            0 
   95000    296.59807   -1210.2197    219.55212   -990.66755    266.41182    14.882604    14.882604    14.882604            0            0            0 
   95100    281.38384   -1207.0077    208.29002   -998.71765    2407.7926    14.863476    14.863476    14.863476            0            0            0 
   95200    301.71583   -1225.1417    223.34046   -1001.8012   -2139.0613    15.051891    15.051891    15.051891            0            0            0 
   95300    310.33235   -1232.4112    229.71871   -1002.6925     298.1112     14.87793     14.87793     14.87793            0            0            0 
   95400    309.96574    -1213.487    229.44733   -984.03968    -1362.504    15.006095    15.006095    15.006095            0            0            0 
   95500    284.50673   -1208.1304    210.60169   -997.52874   -922.60745    15.233832    15.233832    15.233832            0            0            0 
   95600    279.93711   -1202.7385     207.2191   -995.51938    1385.5823     15.15424     15.15424     15.15424            0            0            0 
   95700    272.75109   -1192.7738    201.89977   -990.87406   -996.09397     15.19236     15.19236     15.19236            0            0            0 
   95800    287.53937    -1192.877    212.84656    -980.0304   -434.22249    15.127641    15.127641    15.127641            0            0            0 
   95900    301.94057   -1187.8773    223.50683   -964.37044   -1261.3494    15.263017    15.263017    15.263017            0            0            0 
   96000     298.6933   -1178.1824    221.10308   -957.07934    455.10554    15.389772    15.389772    15.389772            0            0            0 
   96100     315.0599   -1192.8112    233.21821   -959.59299    1319.7077    14.976372    14.976372    14.976372            0            0            0 
   96200    295.58024   -1192.1693    218.79869    -973.3706    180.53296    14.969289    14.969289    14.969289            0            0            0 
   96300    282.02484   -1209.7272    208.76451   -1000.9627   -724.27594    15.009047    15.009047    15.009047            0            0            0 
   96400     298.6702   -1185.9318    221.08598   -964.84581   -938.28788    15.136003    15.136003    15.136003            0            0            0 
   96500    304.41354   -1195.5812    225.33741    -970.2438   -756.07122    15.019755    15.019755    15.019755            0            0            0 
   96600    290.08718   -1184.9252    214.73254   -970.19263    582.87128    14.975615    14.975615    14.975615            0            0            0 
   96700     318.1908   -1194.1584    235.53581   -958.62258   -799.23038    15.113864    15.113864    15.113864            0            0            0 
   96800    287.34096    -1192.245    212.69969   -979.54527     790.0701    15.129784    15.129784    15.129784            0            0            0 
   96900    316.05837   -1197.7094    233.95731    -963.7521    76.768389    15.187418    15.187418    15.187418            0            0            0 
   97000    333.91295   -1212.8523    247.17388   -965.67846   -615.94101    15.229472    15.229472    15.229472            0            0            0 
   97100    325.48974   -1167.5918    240.93874    -926.6531     1067.215     15.08844     15.08844     15.08844            0            0            0 
   97200    321.47792   -1163.7228    237.96905   -925.75378     1723.041    15.026142    15.026142    15.026142            0            0            0 
   97300    313.05143   -1190.2668    231.73147   -958.53537   -58.387401     15.02673     15.02673     15.02673            0            0            0 
   97400    287.97806   -1189.2311    213.17129   -976.05979   -1344.1938    15.250574    15.250574    15.250574            0            0            0 
   97500    277.41286   -1184.4834    205.35057   -979.13283   -191.18034    15.372487    15.372487    15.372487            0            0            0 
   97600    308.70748   -1165.4071    228.51592   -936.89115    1427.0628    15.289015    15.289015    15.289015            0            0            0 
   97700    311.64931   -1153.2459    230.69357   -922.55237   -950.96953    15.281131    15.281131    15.281131            0            0            0 
   97800    327.32905   -1184.8891    242.30025   -942.58882    610.01297    14.988289    14.988289    14.988289            0            0            0 
   97900    335.56029   -1204.0985     248.3933   -955.70524    1025.3023    14.836529    14.836529    14.836529            0            0            0 
   98000    291.56926   -1208.5141    215.82962   -992.68446   -181.00371    14.907146    14.907146    14.907146            0            0            0 
   98100    296.99285   -1237.3678    219.84435   -1017.5234    1389.1701    14.743455    14.743455    14.743455            0            0            0 
   98200    314.18542   -1231.1669    232.57089   -998.59606   -2298.0297    14.939208    14.939208    14.939208            0            0            0 
   98300    295.74235    -1230.195    218.91869   -1011.2763   -201.47967    14.908564    14.908564    14.908564            0            0            0 
   98400       315.03   -1232.0177    233.19608   -998.82161    882.89956    14.799519    14.799519    14.799519            0            0            0 
   98500    296.79285   -1218.7923    219.69631   -999.09596   -253.05218    14.879943    14.879943    14.879943            0            0            0 
   98600     287.2262   -1207.5016    212.61474   -994.88691    466.00146    14.907325    14.907325    14.907325            0            0            0 
   98700    296.42157   -1198.6833    219.42147   -979.26182    348.28941    14.988167    14.988167    14.988167            0            0            0 
   98800    311.09164    -1203.587    230.28077   -973.30621    980.83898    14.904432    14.904432    14.904432            0            0            0 
   98900    302.34037   -1208.0714    223.80277   -984.26867   -871.73821    14.916959    14.916959    14.916959            0            0            0 
   99000    298.36808   -1219.8935    220.86234   -999.03117   -760.95117    15.107724    15.107724    15.107724            0            0            0 
   99100    284.59291   -1207.0955    210.66549   -996.42998   -1344.3174    15.178191    15.178191    15.178191            0            0            0 
   99200    307.65789   -1187.2916    227.73898    -959.5526    298.96798     14.83522     14.83522     14.83522            0            0            0 
   99300    321.68869   -1197.0097    238.12507   -958.88459   -557.61308    14.839046    14.839046    14.839046            0            0            0 
   99400    289.69013    -1218.705    214.43863   -1004.2664    2473.6283    14.856086    14.856086    14.856086            0            0            0 
   99500    296.78918   -1210.6945    219.69359   -991.00092    207.11978     14.92191     14.92191     14.92191            0            0            0 
   99600    277.82055   -1225.5643    205.65235    -1019.912    138.24622     14.84862     14.84862     14.84862            0            0            0 
   99700    299.39689   -1227.5041     221.6239   -1005.8802   -667.46327    14.911011    14.911011    14.911011            0            0            0 
   99800    282.66985    -1196.506    209.24198   -987.26406   -1300.8341    14.986744    14.986744    14.986744            0            0            0 
   99900    288.01962   -1194.9264    213.20206   -981.72429   -407.95488    14.944601    14.944601    14.944601            0            0            0 
SHAKE stats (type/ave/delta) on step 100000
  1 0.95733 6.18275e-05 636
  100000     320.0164   -1200.8294    236.88718   -963.94221   -862.60588    15.053427    15.053427    15.053427            0            0            0 
  100100    309.64416   -1238.8157    229.20929   -1009.6064    33.494709    14.910438    14.910438    14.910438            0            0            0 
  100200    289.98643   -1228.9448    214.65796   -1014.2869   -1421.0382    14.860199    14.860199    14.860199            0            0            0 
  100300    305.90649   -1249.1596    226.44254   -1022.7171   -538.20554    14.835929    14.835929    14.835929            0            0            0 
  100400    276.45801   -1192.4664    204.64375   -987.82268   -22.045198    15.020925    15.020925    15.020925            0            0            0 
  100500    292.57758   -1223.2077    216.57602   -1006.6317    1247.9367    14.973166    14.973166    14.973166            0            0            0 
  100600    288.47226   -1223.7183    213.53712   -1010.1811   -708.41538    15.135728    15.135728    15.135728            0            0            0 
  100700    314.21012   -1199.7769    232.58917   -967.18771    2168.4353    15.098095    15.098095    15.098095            0            0            0 
  100800    307.64667    -1179.995    227.73068   -952.26431   -1640.4639    15.274014    15.274014    15.274014            0            0            0 
  100900    313.26608   -1235.0296    231.89036   -1003.1392   -552.55384    15.057829    15.057829    15.057829            0            0            0 
  101000    282.36821   -1254.3027    209.01869    -1045.284   -1061.7609    15.124116    15.124116    15.124116            0            0            0 
  101100    277.69717   -1260.6784    205.56102   -1055.1174    23.098398    14.955677    14.955677    14.955677            0            0            0 
  101200    296.51352   -1245.9472    219.48954   -1026.4577   -1958.7488    15.209449    15.209449    15.209449            0            0            0 
  101300    287.90728   -1246.0701     213.1189   -1032.9512   -796.72605    15.184465    15.184465    15.184465            0            0            0 
  101400    264.50392   -1216.5754    195.79493   -1020.7805   -1924.6603    15.099942    15.099942    15.099942            0            0            0 
  101500    280.13897   -1212.3931    207.36853   -1005.0246    1120.7211    14.919088    14.919088    14.919088            0            0            0 
  101600    294.86009   -1199.9447    218.26561   -981.67906   -246.48428    15.085061    15.085061    15.085061            0            0            0 
  101700    283.16096   -1214.7415    209.60551    -1005.136   -112.49193    14.964633    14.964633    14.964633            0            0            0 
  101800    286.68239    -1181.741     212.2122   -969.52882   -126.79194    14.980434    14.980434    14.980434            0            0            0 
  101900    310.53709   -1169.8187    229.87027   -939.94841   -1294.9693    14.990882    14.990882    14.990882            0            0            0 
  102000    288.21171   -1175.6369    213.34425   -962.29261   -2118.0565    15.030068    15.030068    15.030068            0            0            0 
  102100    297.39089   -1176.5211    220.13899   -956.38214    2509.7726    14.928407    14.928407    14.928407            0            0            0 
  102200    301.98215   -1212.2996     223.5376   -988.76201    452.69361    14.850366    14.850366    14.850366            0            0            0 
  102300    313.40617   -1218.3533    231.99406   -986.35925    -293.7897    14.789072    14.789072    14.789072            0            0            0 
  102400    287.64844   -1186.0464     212.9273   -973.11912   -435.47552    14.941711    14.941711    14.941711            0            0            0 
  102500     295.9456    -1169.422    219.06914   -950.35288    243.86021    14.996264    14.996264    14.996264            0            0            0 
  102600    291.41866   -1189.8883    215.71815   -974.17012     867.9016    14.909081    14.909081    14.909081            0            0            0 
  102700     294.5553   -1196.6406    218.03999   -978.60062   -584.11404    15.135625    15.135625    15.135625            0            0            0 
  102800    298.41345   -1178.5906    220.89593   -957.69469    230.67502    15.259454    15.259454    15.259454            0            0            0 
  102900    302.08932   -1178.1938    223.61694   -954.57686    324.23981    15.160959    15.160959    15.160959            0            0            0 
  103000    285.29321   -1176.2665    211.18388   -965.08267   -498.49977    15.268036    15.268036    15.268036            0            0            0 
  103100    272.30032   -1191.7561    201.56609   -990.19001    190.70166    15.249096    15.249096    15.249096            0            0            0 
  103200    291.51173   -1197.9932    215.78704   -982.20619    1693.9623    15.187382    15.187382    15.187382            0            0            0 
  103300    322.59921   -1235.3932    238.79906   -996.59412    199.89847    15.165057    15.165057    15.165057            0            0            0 
  103400    300.32744   -1191.0648    222.31273   -968.75202   -788.90013     15.18261     15.18261     15.18261            0            0            0 
  103500     289.3699   -1173.6929    214.20159    -959.4913    898.65392    15.052682    15.052682    15.052682            0            0            0 
  103600    310.97163   -1179.1575    230.19193   -948.96561    719.24459    14.950486    14.950486    14.950486            0            0            0 
  103700    318.46563   -1198.6466    235.73924   -962.90732    2634.5996    14.914552    14.914552    14.914552            0            0            0 
  103800     296.2831   -1209.9165    219.31897   -990.59752    1251.4152    14.965136    14.965136    14.965136            0            0            0 
  103900    300.41122   -1216.8018    222.37475     -994.427    504.93981     15.05513     15.05513     15.05513            0            0            0 
  104000    296.24917   -1192.2311    219.29386   -972.93726   -495.72192    15.022893    15.022893    15.022893            0            0            0 
  104100    318.08927   -1220.3141    235.46065   -984.85341    1243.8685    14.852535    14.852535    14.852535            0            0            0 
  104200    298.76747   -1203.6214    221.15799   -982.46345    1385.9577    14.726095    14.726095    14.726095            0            0            0 
  104300    282.04733   -1196.1324    208.78117   -987.35123    654.31391    14.771052    14.771052    14.771052            0            0            0 
  104400    297.11159   -1199.9333    219.93225   -980.00108    70.202705    14.758522    14.758522    14.758522            0            0            0 
  104500    306.30876   -1207.4919    226.74031   -980.75159   -1914.8632     14.81181     14.81181     14.81181            0            0            0 
  104600    298.38546   -1208.5176    220.87521   -987.64237   -566.72752     14.82239     14.82239     14.82239            0            0            0 
  104700    310.54895   -1185.8094    229.87904   -955.93033   -1341.4243    14.982096    14.982096    14.982096            0            0            0 
  104800    283.91559   -1186.2454    210.16411   -976.08127    701.72633    14.897042    14.897042    14.897042            0            0            0 
  104900    291.95045   -1211.3799     216.1118   -995.26808   -995.00274     14.99359     14.99359     14.99359            0            0            0 
  105000    277.15882   -1205.0965    205.16252     -999.934   -558.77179    14.980003    14.980003    14.980003            0            0            0 
  105100    305.79341   -1216.5416    226.35883   -990.18277     806.3961    15.079036    15.079036    15.079036            0            0            0 
  105200    306.94526   -1218.6966    227.21147   -991.48512   -641.76064    15.029066    15.029066    15.029066            0            0            0 
  105300    287.91353   -1201.6359    213.12353   -988.51235   -881.05597    14.854856    14.854856    14.854856            0            0            0 
  105400    290.46362   -1220.6689    215.01119   -1005.6577   -645.69508    14.810053    14.810053    14.810053            0            0            0 
  105500    288.90055   -1212.1142    213.85415    -998.2601   -807.45497    14.931047    14.931047    14.931047            0            0            0 
  105600    299.14426   -1223.0289     221.4369    -1001.592    563.56692    14.828628    14.828628    14.828628            0            0            0 
  105700    284.22597   -1204.0732    210.39387   -993.67934   -1808.9881     15.08707     15.08707     15.08707            0            0            0 
  105800    306.35928   -1203.5877    226.77771   -976.81003    1125.7719    14.933973    14.933973    14.933973            0            0            0 
  105900    317.92098   -1219.6694    235.33608   -984.33331    1204.2542     14.93892     14.93892     14.93892            0            0            0 
  106000    305.86329   -1212.2062    226.41056   -985.79562   -1324.1867    14.983144    14.983144    14.983144            0            0            0 
  106100    323.46106   -1178.0758    239.43703   -938.63877   -424.80406    14.922287    14.922287    14.922287            0            0            0 
  106200    324.41788   -1187.4524    240.14531   -947.30713   -340.01231    14.934992    14.934992    14.934992            0            0            0 
  106300    302.46871   -1179.8799    223.89777   -955.98215    1891.3442    14.899656    14.899656    14.899656            0            0            0 
  106400    286.30518   -1174.5704    211.93297   -962.63746   -3017.6737    15.087865    15.087865    15.087865            0            0            0 
  106500    313.26421    -1186.745    231.88898   -954.85603    509.07346    14.770525    14.770525    14.770525            0            0            0 
  106600    270.63814   -1182.5563    200.33569   -982.22064    888.52046    14.895567    14.895567    14.895567            0            0            0 
  106700    306.85824    -1209.743    227.14706   -982.59595    599.81291     15.08606     15.08606     15.08606            0            0            0 
  106800    302.51234   -1196.8664    223.93007    -972.9363     436.7636    15.091836    15.091836    15.091836            0            0            0 
  106900    305.65866    -1186.694    226.25908   -960.43492   -790.30639    14.991478    14.991478    14.991478            0            0            0 
  107000    311.62776   -1183.5128    230.67762   -952.83521    527.26624    14.994397    14.994397    14.994397            0            0            0 
  107100    320.67254   -1176.5621    237.37288   -939.18926    -1138.012    14.955872    14.955872    14.955872            0            0            0 
  107200    316.11971   -1218.0017    234.00271     -983.999   -3193.6457    15.005807    15.005807    15.005807            0            0            0 
  107300    313.25519   -1187.1449     231.8823   -955.26262    403.35654      14.8972      14.8972      14.8972            0            0            0 
  107400    296.18408   -1206.6076    219.24567   -987.36198   -436.39832    14.899979    14.899979    14.899979            0            0            0 
  107500    304.18577   -1201.0908     225.1688   -975.92202    190.08206    14.953162    14.953162    14.953162            0            0            0 
  107600    285.39246   -1220.9657    211.25734   -1009.7084    1658.4117    14.865825    14.865825    14.865825            0            0            0 
  107700    301.75872   -1213.0192    223.37222   -989.64694    1704.6255    14.999541    14.999541    14.999541            0            0            0 
  107800    292.84928   -1187.9266    216.77714   -971.14945   -2078.4633    15.226926    15.226926    15.226926            0            0            0 
  107900    272.37783   -1199.1649    201.62347   -997.54143      937.148    15.053573    15.053573    15.053573            0            0            0 
  108000    302.69293   -1211.9527    224.06375   -987.88895     2409.437    14.985853    14.985853    14.985853            0            0            0 
  108100    304.58215   -1218.8719    225.46221   -993.40964   -345.45876    14.932183    14.932183    14.932183            0            0            0 
  108200    332.44624   -1208.0041    246.08817   -961.91597   -406.05759    14.810243    14.810243    14.810243            0            0            0 
  108300    297.93444   -1193.6228    220.54135   -973.08148   -2282.8776    15.103047    15.103047    15.103047            0            0            0 
  108400    331.86259   -1193.5048    245.65613   -947.84871   -1323.0704    15.074159    15.074159    15.074159            0            0            0 
  108500    319.41917    -1159.619    236.44508   -923.17388    536.16496    15.012805    15.012805    15.012805            0            0            0 
  108600    317.14835    -1151.915    234.76415   -917.15081    1955.6382    14.851169    14.851169    14.851169            0            0            0 
  108700    311.29982   -1149.1401    230.43487   -918.70522     130.3693    15.052355    15.052355    15.052355            0            0            0 
  108800    294.95627   -1139.6601    218.33681    -921.3233   -72.181207    15.089513    15.089513    15.089513            0            0            0 
  108900    332.48085   -1199.9607    246.11379   -953.84691    -1521.512    14.918903    14.918903    14.918903            0            0            0 
  109000    279.99088   -1187.0458    207.25891   -979.78692   -1368.6977    14.841513    14.841513    14.841513            0            0            0 
  109100    310.14903   -1200.2812    229.58301   -970.69821    1645.5252    14.844385    14.844385    14.844385            0            0            0 
  109200    271.24946   -1192.8978    200.78821   -992.10959    959.56474    14.956119    14.956119    14.956119            0            0            0 
  109300    279.73347   -1194.8653    207.06837   -987.79696   -990.61338    14.991377    14.991377    14.991377            0            0            0 
  109400    313.07925   -1239.1999    231.75206   -1007.4478    788.14909     14.77838     14.77838     14.77838            0            0            0 
  109500     301.4231   -1209.3046    223.12378    -986.1808    1088.9134    14.788378    14.788378    14.788378            0            0            0 
  109600    287.62751   -1208.2071     212.9118   -995.29527   -2399.4467    14.867387    14.867387    14.867387            0            0            0 
  109700    296.58228   -1226.6169    219.54043   -1007.0765   -1275.0761    14.956428    14.956428    14.956428            0            0            0 
  109800    299.80175   -1219.8649     221.9236   -997.94129   -519.76725    14.964876    14.964876    14.964876            0            0            0 
  109900    285.52226   -1199.8118    211.35343   -988.45837    2144.0868    14.860711    14.860711    14.860711            0            0            0 
  110000    305.86469   -1219.4099    226.41159   -992.99826    879.73463    14.793666    14.793666    14.793666            0            0            0 
  110100    321.71942   -1211.4342    238.14781   -973.28643    1787.3024    14.574732    14.574732    14.574732            0            0            0 
  110200    303.41067   -1191.0198    224.59504   -966.42476    777.09068     14.73829     14.73829     14.73829            0            0            0 
  110300    293.63397   -1214.9367    217.35799   -997.57872    33.718837    14.885608    14.885608    14.885608            0            0            0 
  110400     297.3062   -1196.9001     220.0763    -976.8238    1145.9007    14.836465    14.836465    14.836465            0            0            0 
  110500     295.7481    -1200.854    218.92294   -981.93105    -158.3044    14.813817    14.813817    14.813817            0            0            0 
  110600    310.42107   -1200.0011    229.78438   -970.21669    78.950085     14.81496     14.81496     14.81496            0            0            0 
  110700    302.70106   -1173.1143    224.06977   -949.04455    2820.8895    14.667421    14.667421    14.667421            0            0            0 
  110800    290.53425   -1190.1391    215.06347   -975.07559    149.18097    14.960639    14.960639    14.960639            0            0            0 
  110900    281.52585   -1197.3566    208.39515    -988.9615     1338.578    14.880615    14.880615    14.880615            0            0            0 
  111000    300.00297   -1205.0365    222.07254   -982.96397   -479.51045     15.00541     15.00541     15.00541            0            0            0 
  111100     294.1737   -1222.2414    217.75752   -1004.4839     183.1026    14.988908    14.988908    14.988908            0            0            0 
  111200    289.78691   -1230.6079    214.51026   -1016.0976   -959.54702    15.072444    15.072444    15.072444            0            0            0 
  111300    297.98948   -1232.0267    220.58209   -1011.4446   -2044.8506    15.237313    15.237313    15.237313            0            0            0 
  111400    311.06818   -1219.8427     230.2634   -989.57932    842.67384    15.174195    15.174195    15.174195            0            0            0 
  111500    307.15565   -1189.7948     227.3672   -962.42756   -233.90478    15.166477    15.166477    15.166477            0            0            0 
  111600    309.48583   -1194.0098    229.09209   -964.91768     315.2967    15.086378    15.086378    15.086378            0            0            0 
  111700    289.54739    -1207.481    214.33297   -993.14805    732.97453     14.92747     14.92747     14.92747            0            0            0 
  111800    302.08474   -1208.0267    223.61354   -984.41317    1670.8144    14.782004    14.782004    14.782004            0            0            0 
  111900    289.37006   -1223.8961     214.2017   -1009.6944   -334.41197    14.830834    14.830834    14.830834            0            0            0 
  112000    295.18748   -1232.1836    218.50795   -1013.6756   -1436.1023    14.677437    14.677437    14.677437            0            0            0 
  112100    305.01002   -1234.5679    225.77894   -1008.7889   -807.28048    14.709277    14.709277    14.709277            0            0            0 
  112200    296.90277   -1226.7554    219.77768   -1006.9777   -40.924714    14.831697    14.831697    14.831697            0            0            0 
  112300    295.13963   -1191.9406    218.47253   -973.46808   -152.37155    14.880202    14.880202    14.880202            0            0            0 
  112400     286.4318   -1209.8444     212.0267   -997.81769   -924.22597     14.96357     14.96357     14.96357            0            0            0 
  112500    301.91596   -1211.8435    223.48861   -988.35489    1472.8122     14.95704     14.95704     14.95704            0            0            0 
  112600    330.47405   -1203.9699    244.62829   -959.34165    2.3439094    14.882755    14.882755    14.882755            0            0            0 
  112700    314.80474   -1196.1253    233.02933   -963.09599   -1018.7745    15.007462    15.007462    15.007462            0            0            0 
  112800    295.78215   -1177.7233    218.94815   -958.77511   -1183.2196    15.015779    15.015779    15.015779            0            0            0 
  112900    306.44531   -1200.5939    226.84139   -973.75256   -1532.1102     14.96607     14.96607     14.96607            0            0            0 
  113000      308.598   -1182.7519    228.43488   -954.31701    855.49659    14.911061    14.911061    14.911061            0            0            0 
  113100    299.15476    -1180.705    221.44467   -959.26031    109.18233    14.877007    14.877007    14.877007            0            0            0 
  113200    316.41142   -1192.2673    234.21864   -958.04865    1792.0223    14.810094    14.810094    14.810094            0            0            0 
  113300    322.54553   -1182.1854    238.75933   -943.42604     1042.089    14.892384    14.892384    14.892384            0            0            0 
  113400    288.68564   -1191.4623    213.69507   -977.76724    1893.5556    14.839313    14.839313    14.839313            0            0            0 
  113500    317.69153   -1214.6276    235.16623   -979.46139   -189.60264    14.952697    14.952697    14.952697            0            0            0 
  113600    291.65095   -1201.4269    215.89009   -985.53685   -731.26342    14.966962    14.966962    14.966962            0            0            0 
  113700    317.82737   -1234.1651    235.26678   -998.89827    1557.3276    14.791564    14.791564    14.791564            0            0            0 
  113800    297.27758   -1212.4325    220.05512   -992.37742    204.87839    14.912385    14.912385    14.912385            0            0            0 
  113900    301.82307   -1206.8672    223.41985   -983.44739    -2388.417    14.983785    14.983785    14.983785            0            0            0 
  114000    303.80743   -1195.4545    224.88874   -970.56575   -1369.8472    14.865191    14.865191    14.865191            0            0            0 
  114100    312.10119   -1185.8885    231.02807   -954.86046    289.44656    14.917451    14.917451    14.917451            0            0            0 
  114200    298.99192   -1201.2646    221.32414   -979.94042     415.5382     14.88145     14.88145     14.88145            0            0            0 
  114300    298.00827    -1213.144      220.596   -992.54797   -871.24018    14.922395    14.922395    14.922395            0            0            0 
  114400    292.43339   -1201.5373    216.46928   -985.06802   -1873.3481    14.985705    14.985705    14.985705            0            0            0 
  114500    311.89538    -1191.411    230.87572   -960.53523    270.65148    14.754951    14.754951    14.754951            0            0            0 
  114600    302.10059   -1174.3657    223.62528   -950.74046   -1089.8467    14.826397    14.826397    14.826397            0            0            0 
  114700     331.7539   -1193.3204    245.57568   -947.74468    45.136328    14.966471    14.966471    14.966471            0            0            0 
  114800    316.63909   -1191.1658    234.38718   -956.77859    784.03498     15.06894     15.06894     15.06894            0            0            0 
  114900     288.3485   -1201.8647    213.44551   -988.41917    110.95649    15.090483    15.090483    15.090483            0            0            0 
  115000    257.26475   -1207.4299    190.43624   -1016.9937   -266.21861    15.263013    15.263013    15.263013            0            0            0 
  115100    322.18354   -1225.2016    238.49137   -986.71027    1335.7661    15.050732    15.050732    15.050732            0            0            0 
  115200    312.39035   -1214.7775    231.24212   -983.53538    279.11205     14.95174     14.95174     14.95174            0            0            0 
  115300    322.82996   -1165.7898    238.96987   -926.81994    2038.8146    14.983042    14.983042    14.983042            0            0            0 
  115400    286.52958   -1161.9522    212.09908   -949.85308   -276.35975    15.380242    15.380242    15.380242            0            0            0 
  115500     276.1568   -1153.3665    204.42079   -948.94574    2351.8516     15.26127     15.26127     15.26127            0            0            0 
  115600    274.34124   -1186.4105    203.07685   -983.33362    427.71547    15.243566    15.243566    15.243566            0            0            0 
  115700    302.48006   -1222.5946    223.90617   -998.68847    1482.7735    15.047994    15.047994    15.047994            0            0            0 
  115800    299.24132    -1213.103    221.50875   -991.59427    339.17142    15.059699    15.059699    15.059699            0            0            0 
  115900    291.07899   -1208.3368    215.46671   -992.87006    1092.2213    15.006074    15.006074    15.006074            0            0            0 
  116000    301.71364   -1227.7709    223.33884   -1004.4321   -2560.6675    15.195876    15.195876    15.195876            0            0            0 
  116100    284.02735   -1210.4413    210.24684   -1000.1945    515.79721    15.063482    15.063482    15.063482            0            0            0 
  116200    288.87784   -1199.9562    213.83734   -986.11887    980.88767    14.966838    14.966838    14.966838            0            0            0 
  116300    273.63229   -1236.6609    202.55206   -1034.1089    85.856158    14.835819    14.835819    14.835819            0            0            0 
  116400    302.21952   -1215.6468    223.71332   -991.93353   -496.28112    15.077448    15.077448    15.077448            0            0            0 
  116500    282.75496   -1190.3672    209.30498   -981.06225   -1086.0171    15.102673    15.102673    15.102673            0            0            0 
  116600    286.14728   -1198.8228    211.81609    -987.0067    2618.7241    14.738709    14.738709    14.738709            0            0            0 
  116700    294.86587   -1200.2684    218.26989   -981.99851   -719.51315    15.044269    15.044269    15.044269            0            0            0 
  116800    292.97591   -1181.9442    216.87088   -965.07335   -221.80734    15.187273    15.187273    15.187273            0            0            0 
  116900    309.61737   -1194.4825    229.18946   -965.29307    1868.2616    14.954344    14.954344    14.954344            0            0            0 
  117000    298.98566   -1203.9467     221.3195   -982.62725    1804.0436     15.10569     15.10569     15.10569            0            0            0 
  117100    298.73447   -1204.8539    221.13356   -983.72035    2189.8321    15.078897    15.078897    15.078897            0            0            0 
  117200    315.00802   -1220.8136    233.17981    -987.6338   -1617.3246    15.102731    15.102731    15.102731            0            0            0 
  117300    286.01216   -1217.9599    211.71606   -1006.2439    1205.7399    14.861289    14.861289    14.861289            0            0            0 
  117400    291.23148   -1228.3357    215.57959   -1012.7562 -0.066451582    14.957287    14.957287    14.957287            0            0            0 
  117500    282.64005   -1214.5919    209.21992   -1005.3719   -18.035935    14.871586    14.871586    14.871586            0            0            0 
  117600    286.57417   -1185.6525    212.13208    -973.5204     2508.569    14.644535    14.644535    14.644535            0            0            0 
  117700    306.32158   -1195.9753     226.7498   -969.22554    2446.1112    14.738509    14.738509    14.738509            0            0            0 
  117800    275.99248   -1216.4642    204.29916    -1012.165    145.50551    14.858363    14.858363    14.858363            0            0            0 
  117900    286.15846   -1221.1588    211.82436   -1009.3344     296.6689    14.793263    14.793263    14.793263            0            0            0 
  118000    282.33518   -1226.8345    208.99424   -1017.8402    363.68158    14.834786    14.834786    14.834786            0            0            0 
  118100    304.97329   -1228.2585    225.75175   -1002.5068     2670.449     14.85379     14.85379     14.85379            0            0            0 
  118200    292.88799   -1210.7973     216.8058   -993.99146    388.06758    14.992475    14.992475    14.992475            0            0            0 
  118300    290.08547   -1217.8183    214.73127    -1003.087   -118.09892    14.992854    14.992854    14.992854            0            0            0 
  118400    313.00375   -1204.4266    231.69617   -972.73048   -2431.6792    15.118581    15.118581    15.118581            0            0            0 
  118500    293.29309   -1216.8755    217.10566   -999.76985    2215.9018    14.792517    14.792517    14.792517            0            0            0 
  118600    272.46277   -1160.7246    201.68634   -959.03825   -1641.1398    15.127129    15.127129    15.127129            0            0            0 
  118700    295.20723   -1190.3715    218.52258   -971.84896    743.17259    14.878966    14.878966    14.878966            0            0            0 
  118800    310.66546   -1190.0913    229.96529   -960.12596    528.45531    15.040655    15.040655    15.040655            0            0            0 
  118900    317.00008   -1164.6173    234.65439    -929.9629   -1036.4155    15.184822    15.184822    15.184822            0            0            0 
  119000    314.63678   -1186.7624      232.905   -953.85742    -567.7757     15.09198     15.09198     15.09198            0            0            0 
  119100    284.01929   -1193.3587    210.24088   -983.11786   -2239.1511    15.102847    15.102847    15.102847            0            0            0 
  119200    314.04954   -1213.0461     232.4703   -980.57579    374.57193     15.04075     15.04075     15.04075            0            0            0 
  119300    302.95645   -1185.3253    224.25882   -961.06646    902.91178    14.991475    14.991475    14.991475            0            0            0 
  119400    313.52609   -1202.4701    232.08283    -970.3873     39.88027    14.937637    14.937637    14.937637            0            0            0 
  119500    318.76327   -1165.1982    235.95957   -929.23864    -718.9888    14.995416    14.995416    14.995416            0            0            0 
  119600    314.05629   -1170.3771     232.4753   -937.90181    1176.8341    14.987563    14.987563    14.987563            0            0            0 
  119700    281.60504   -1176.6982    208.45376    -968.2444   -777.38891     15.09316     15.09316     15.09316            0            0            0 
  119800    307.92072   -1178.0872    227.93354   -950.15368    446.36464    15.025901    15.025901    15.025901            0            0            0 
  119900    311.82862   -1193.5594     230.8263   -962.73313   -744.75791     15.16871     15.16871     15.16871            0            0            0 
  120000    299.62836   -1191.3811    221.79525    -969.5858    4245.3606    14.891938    14.891938    14.891938            0            0            0 
  120100    285.79759   -1214.5289    211.55723   -1002.9717   -586.42523    15.116941    15.116941    15.116941            0            0            0 
  120200     293.3601   -1190.2561    217.15526   -973.10087   -29.157116    14.970293    14.970293    14.970293            0            0            0 
  120300    286.15231   -1188.7864    211.81981   -976.96661   -897.71856    15.010775    15.010775    15.010775            0            0            0 
  120400    303.07547    -1206.439    224.34692   -982.09206   -851.05051    14.868766    14.868766    14.868766            0            0            0 
  120500    288.84135   -1221.5986    213.81033   -1007.7882    1186.4298    14.737316    14.737316    14.737316            0            0            0 
  120600    286.18856   -1223.6385    211.84665   -1011.7919   -1126.1133    14.818589    14.818589    14.818589            0            0            0 
  120700    296.60991   -1224.1854    219.56089   -1004.6245    940.19685    14.759552    14.759552    14.759552            0            0            0 
  120800    283.37231   -1219.1556    209.76196   -1009.3936   -820.69727    14.897659    14.897659    14.897659            0            0            0 
  120900    315.10445   -1192.7405    233.25119   -959.48932    354.53719    14.959966    14.959966    14.959966            0            0            0 
  121000    340.96788   -1194.4001    252.39619   -942.00393    907.30683    14.962802    14.962802    14.962802            0            0            0 
  121100    290.94719     -1192.62    215.36915   -977.25084     1342.566    14.824359    14.824359    14.824359            0            0            0 
  121200    308.15847   -1212.8551    228.10953   -984.74553    -3641.225     14.91573     14.91573     14.91573            0            0            0 
  121300    312.52397   -1237.5692    231.34102   -1006.2282   -430.51109    14.787607    14.787607    14.787607            0            0            0 
  121400    276.89474   -1203.9821    204.96704   -999.01502    363.42487    14.879227    14.879227    14.879227            0            0            0 
  121500     299.9639   -1220.1249    222.04363   -998.08125    748.90872    14.743398    14.743398    14.743398            0            0            0 
  121600     295.1669   -1209.6501    218.49272   -991.15739   -718.45534    14.948431    14.948431    14.948431            0            0            0 
  121700    275.80173   -1207.6016    204.15796   -1003.4437    430.65748    15.020562    15.020562    15.020562            0            0            0 
  121800     268.4793   -1213.7809    198.73764   -1015.0433   -482.87186    14.936605    14.936605    14.936605            0            0            0 
  121900    289.66378   -1208.7167    214.41912   -994.29758   -205.89619    14.876801    14.876801    14.876801            0            0            0 
  122000    290.07442   -1191.7142    214.72309   -976.99115   -638.67847    15.051257    15.051257    15.051257            0            0            0 
  122100    293.57821   -1168.9127    217.31672   -951.59594    39.394682    15.242623    15.242623    15.242623            0            0            0 
  122200    290.99144   -1202.2664     215.4019   -986.86451    338.34422    15.221103    15.221103    15.221103            0            0            0 
  122300    292.44282   -1200.5421    216.47626   -984.06588   -1250.5175    15.139843    15.139843    15.139843            0            0            0 
  122400    307.03455   -1206.2718    227.27757   -978.99428   -2179.4059    15.106588    15.106588    15.106588            0            0            0 
  122500    315.93514   -1198.9514    233.86609   -965.08532   -4.3072767    14.992509    14.992509    14.992509            0            0            0 
  122600    323.53677   -1202.1624    239.49307   -962.66937   -1025.8331    15.090601    15.090601    15.090601            0            0            0 
  122700    311.12813   -1195.7328    230.30778   -965.42502    4201.2744    14.993891    14.993891    14.993891            0            0            0 
  122800    299.22754   -1188.0309    221.49855   -966.53234    630.73173    15.177131    15.177131    15.177131            0            0            0 
  122900    281.55647   -1225.4979    208.41781   -1017.0801   -530.31273    15.262239    15.262239    15.262239            0            0            0 
  123000    308.13332   -1207.6002    228.09091   -979.50932    806.03475    15.264903    15.264903    15.264903            0            0            0 
  123100    300.92684   -1208.8179    222.75643   -986.06144    644.55133    15.378991    15.378991    15.378991            0            0            0 
  123200    298.02932    -1209.247    220.61158    -988.6354   -885.14396    15.453364    15.453364    15.453364            0            0            0 
  123300    297.48397   -1217.8832     220.2079   -997.67526    -648.4593    15.361216    15.361216    15.361216            0            0            0 
  123400    320.21152   -1227.6198    237.03161   -990.58822    2695.0887    15.140202    15.140202    15.140202            0            0            0 
  123500    287.39479   -1199.5554    212.73953    -986.8159    512.80585    15.288035    15.288035    15.288035            0            0            0 
  123600    309.34291   -1175.0968    228.98629   -946.11049   -848.49979    15.491921    15.491921    15.491921            0            0            0 
  123700    335.17732   -1209.8348    248.10982   -961.72498    13.342494    15.301736    15.301736    15.301736            0            0            0 
  123800     324.9443    -1217.809    240.53498   -977.27403   -635.92711    15.213572    15.213572    15.213572            0            0            0 
  123900    294.30137   -1199.8428    217.85203   -981.99079   -18.247579     15.25466     15.25466     15.25466            0            0            0 
  124000    283.73431   -1187.6644    210.02993   -977.63445   -1641.1658    15.156899    15.156899    15.156899            0            0            0 
  124100     334.1778   -1221.0991    247.36994   -973.72915    132.22395    15.053218    15.053218    15.053218            0            0            0 
  124200    319.99627   -1176.0367    236.87228   -939.16446   -699.55504    15.242836    15.242836    15.242836            0            0            0 
  124300    329.11647   -1193.4932    243.62336   -949.86983   -1656.5399    15.212545    15.212545    15.212545            0            0            0 
  124400    311.05126   -1185.7309    230.25087      -955.48   -631.74264    15.232845    15.232845    15.232845            0            0            0 
  124500    293.76481   -1205.8383    217.45484   -988.38342    458.84398    15.112367    15.112367    15.112367            0            0            0 
  124600    292.74666   -1208.5385    216.70117   -991.83732    1173.1923    15.003477    15.003477    15.003477            0            0            0 
  124700    292.29312   -1205.3405    216.36545   -988.97508    337.32094    15.115521    15.115521    15.115521            0            0            0 
  124800    291.89172   -1223.4874    216.06832   -1007.4191     623.8794    15.217109    15.217109    15.217109            0            0            0 
  124900    291.79046   -1202.8143    215.99336   -986.82098   -55.669021    15.374163    15.374163    15.374163            0            0            0 
  125000    286.65981   -1194.9796    212.19548   -982.78411   -1898.3064    15.334854    15.334854    15.334854            0            0            0 
  125100    297.48745   -1189.1591    220.21047   -968.94868    2833.5264    14.973107    14.973107    14.973107            0            0            0 
  125200    290.63388    -1204.602    215.13722   -989.46478    164.68355    14.973476    14.973476    14.973476            0            0            0 
  125300    291.23642   -1187.2938    215.58325   -971.71052   -570.42249    15.048045    15.048045    15.048045            0            0            0 
  125400    292.86881   -1207.7259    216.79159   -990.93428    828.96199    14.913866    14.913866    14.913866            0            0            0 
  125500    270.61353   -1222.7543    200.31747   -1022.4368    1181.0635     14.81194     14.81194     14.81194            0            0            0 
  125600     296.2329   -1239.4742    219.28181   -1020.1924   -1590.2942    14.979617    14.979617    14.979617            0            0            0 
  125700    320.33481   -1208.1114    237.12288   -970.98851     158.7748    14.865502    14.865502    14.865502            0            0            0 
  125800    314.10772   -1191.4716    232.51337   -958.95823    -3210.258     15.12731     15.12731     15.12731            0            0            0 
  125900    302.28815   -1179.7116    223.76412   -955.94748   -1524.9427    14.975675    14.975675    14.975675            0            0            0 
  126000    290.14117   -1199.6119     214.7725   -984.83945   -58.589051    14.967906    14.967906    14.967906            0            0            0 
  126100    316.38976   -1190.0012    234.20262   -955.79862    -555.2715    15.062857    15.062857    15.062857            0            0            0 
  126200    303.81697   -1168.0037     224.8958    -943.1079   -228.22023    15.261675    15.261675    15.261675            0            0            0 
  126300    343.32879   -1184.7023    254.14381   -930.55846    2109.8709    15.175433    15.175433    15.175433            0            0            0 
  126400    297.86645   -1192.9566    220.49102    -972.4656   -112.55583    15.189831    15.189831    15.189831            0            0            0 
  126500    329.56883   -1218.9692    243.95822   -975.01095    581.13246    14.887765    14.887765    14.887765            0            0            0 
  126600    262.64453   -1177.6104    194.41854   -983.19189   -2007.8988    15.097488    15.097488    15.097488            0            0            0 
  126700    297.05826   -1218.4425    219.89277   -998.54972    1904.1096    14.886141    14.886141    14.886141            0            0            0 
  126800    276.52568   -1205.9857    204.69385   -1001.2919   -457.22234    14.985967    14.985967    14.985967            0            0            0 
  126900    307.74118   -1213.2035    227.80063   -985.40284   -494.29764    15.035125    15.035125    15.035125            0            0            0 
  127000    283.03322   -1223.0312    209.51095   -1013.5202   -287.47118    15.171924    15.171924    15.171924            0            0            0 
  127100    317.19502   -1238.5915    234.79869   -1003.7928    1400.6825    15.002611    15.002611    15.002611            0            0            0 
  127200    293.58185   -1183.5234    217.31941   -966.20402    337.55663    14.951361    14.951361    14.951361            0            0            0 
  127300        284.9   -1200.4304    210.89281   -989.53756   -515.18924    14.943297    14.943297    14.943297            0            0            0 
  127400    286.37662   -1220.3087    211.98585   -1008.3228    2035.9307    14.739247    14.739247    14.739247            0            0            0 
  127500    294.24993   -1196.2617    217.81395   -978.44778   -1083.6164    15.073604    15.073604    15.073604            0            0            0 
  127600    305.98045   -1205.3263    226.49728   -978.82904    -2102.069    15.004129    15.004129    15.004129            0            0            0 
  127700    326.03508   -1204.3028    241.34241   -962.96034    2383.6281    14.804669    14.804669    14.804669            0            0            0 
  127800    302.13889   -1220.6581    223.65363   -997.00447   -634.21806    15.089839    15.089839    15.089839            0            0            0 
  127900    313.27836   -1211.6257    231.89945   -979.72627    489.65943    15.113348    15.113348    15.113348            0            0            0 
  128000      299.592   -1211.4593    221.76834   -989.69095   -1870.1255    15.278178    15.278178    15.278178            0            0            0 
  128100    321.00859   -1200.8292    237.62163   -963.20752    2100.7606    15.094376    15.094376    15.094376            0            0            0 
  128200    309.55004   -1220.4271    229.13962   -991.28743    205.24846    15.049252    15.049252    15.049252            0            0            0 
  128300    297.80184   -1197.0371    220.44319   -976.59391   -2410.2983    15.046488    15.046488    15.046488            0            0            0 
  128400    307.37948   -1185.9183    227.53289    -958.3854   -1319.6506    15.004703    15.004703    15.004703            0            0            0 
  128500    310.44814   -1201.1284    229.80442   -971.32402    -169.5707    15.006474    15.006474    15.006474            0            0            0 
  128600    297.67299   -1185.9845    220.34781   -965.63666   -572.91308    15.100977    15.100977    15.100977            0            0            0 
  128700     315.4912    -1212.516    233.53747   -978.97855   -1703.2159    15.232195    15.232195    15.232195            0            0            0 
  128800    274.20207   -1189.6415    202.97383   -986.66772   -505.19447    15.293319    15.293319    15.293319            0            0            0 
  128900    308.42332   -1192.4498    228.30558   -964.14426    3896.0764    14.978818    14.978818    14.978818            0            0            0 
  129000    286.82207   -1202.2608    212.31559   -989.94522   -1178.0365    15.075455    15.075455    15.075455            0            0            0 
  129100    276.06153   -1195.3805    204.35026   -991.03028   -1985.2051    15.177831    15.177831    15.177831            0            0            0 
  129200    290.04553   -1211.1265     214.7017   -996.42483     661.3013    15.070483    15.070483    15.070483            0            0            0 
  129300    289.87791   -1171.5614    214.57763   -956.98373    112.11367    15.063844    15.063844    15.063844            0            0            0 
  129400    319.19265   -1179.8434    236.27741   -943.56602    717.25398    14.957179    14.957179    14.957179            0            0            0 
  129500    335.39251     -1195.68    248.26911   -947.41089    1810.9424    14.921555    14.921555    14.921555            0            0            0 
  129600    318.32814   -1171.8856    235.63747   -936.24813   -957.51195    15.114643    15.114643    15.114643            0            0            0 
  129700    300.59781   -1216.9367    222.51287   -994.42386    2179.4265     14.90033     14.90033     14.90033            0            0            0 
  129800    307.80634   -1206.5996    227.84887   -978.75077   -1253.0939    15.127788    15.127788    15.127788            0            0            0 
  129900    300.06939   -1201.6624    222.12171   -979.54071    635.62452    15.122423    15.122423    15.122423            0            0            0 
  130000    302.95005   -1180.1589    224.25408   -955.90481    -465.2184    15.216134    15.216134    15.216134            0            0            0 
  130100    308.58944   -1157.8774    228.42855   -929.44888    842.62262    15.322034    15.322034    15.322034            0            0            0 
  130200    295.24156   -1178.8691    218.54799   -960.32113    472.49822    15.475013    15.475013    15.475013            0            0            0 
  130300    321.48948   -1183.3585     237.9776   -945.38089    1573.1896    15.285207    15.285207    15.285207            0            0            0 
  130400    296.08032    -1186.608    219.16887   -967.43914    522.33222    15.215388    15.215388    15.215388            0            0            0 
  130500    292.09219   -1182.3359    216.21672   -966.11916    656.18852    15.204708    15.204708    15.204708            0            0            0 
  130600    273.15062   -1193.7337    202.19551   -991.53817    157.12582    15.348066    15.348066    15.348066            0            0            0 
  130700    267.61648   -1166.5292    198.09895    -968.4303   -1686.0023    15.514584    15.514584    15.514584            0            0            0 
  130800    293.14687   -1183.1679    216.99743   -966.17044    26.555356    15.495111    15.495111    15.495111            0            0            0 
  130900     311.8104   -1182.2543    230.81282   -951.44148   -851.68789    15.525782    15.525782    15.525782            0            0            0 
  131000    336.78483   -1213.0059    249.29975   -963.70615    1659.8569    15.202721    15.202721    15.202721            0            0            0 
  131100    316.96296    -1191.733    234.62692   -957.10611   -741.58976    15.375489    15.375489    15.375489            0            0            0 
  131200    298.09542   -1199.3233    220.66051   -978.66274   -302.66295    15.351713    15.351713    15.351713            0            0            0 
  131300    275.62583   -1220.6072    204.02775   -1016.5794   -1286.2871    15.300449    15.300449    15.300449            0            0            0 
  131400    276.77882    -1223.076    204.88123   -1018.1948    -1276.796    15.450526    15.450526    15.450526            0            0            0 
  131500    306.50444   -1208.4879    226.88516   -981.60273    1652.9223    15.292904    15.292904    15.292904            0            0            0 
  131600    301.27358   -1210.6708     223.0131   -987.65767   -320.91295    15.226795    15.226795    15.226795            0            0            0 
  131700    299.07736   -1213.3011    221.38738   -991.91377   -601.34227    15.274167    15.274167    15.274167            0            0            0 
  131800    279.43874   -1187.1834    206.85019   -980.33325    272.59641    15.049255    15.049255    15.049255            0            0            0 
  131900     294.7195   -1205.7955    218.16154   -987.63395   -966.23202    15.180426    15.180426    15.180426            0            0            0 
  132000    275.96103   -1160.4209    204.27587   -956.14506   -427.26845    15.388091    15.388091    15.388091            0            0            0 
  132100    322.34347   -1188.1206    238.60976   -949.51088   -399.77966    15.381009    15.381009    15.381009            0            0            0 
  132200    308.73757   -1190.4722     228.5382   -961.93396   -92.418976    15.214288    15.214288    15.214288            0            0            0 
  132300    287.20648   -1213.3268    212.60014   -1000.7267    684.43619    15.200182    15.200182    15.200182            0            0            0 
  132400     306.1393    -1201.491    226.61487   -974.87618    -1569.075    15.333247    15.333247    15.333247            0            0            0 
  132500    274.23969   -1190.5206    203.00168   -987.51896   -1140.9233    15.233171    15.233171    15.233171            0            0            0 
  132600    295.23066   -1210.3953    218.53992   -991.85535   -411.85372    15.074237    15.074237    15.074237            0            0            0 
  132700    302.59412   -1214.2044    223.99061   -990.21382   -178.66352    15.117415    15.117415    15.117415            0            0            0 
  132800    291.11972   -1209.1181    215.49686   -993.62128    1943.9667    15.086449    15.086449    15.086449            0            0            0 
  132900    282.94837   -1184.4417    209.44815   -974.99355    223.73758    15.241668    15.241668    15.241668            0            0            0 
  133000    303.87193   -1167.8789    224.93649   -942.94239   -1795.1608    15.376867    15.376867    15.376867            0            0            0 
  133100    306.84195   -1210.7068      227.135   -983.57178    708.80435    15.059884    15.059884    15.059884            0            0            0 
  133200    308.79044   -1210.4136    228.57734   -981.83631   -595.84881    15.039298    15.039298    15.039298            0            0            0 
  133300    318.28367   -1192.9343    235.60455   -957.32973    480.19599    15.035866    15.035866    15.035866            0            0            0 
  133400    306.37248   -1199.4906    226.78748   -972.70314   -1059.0431    15.179231    15.179231    15.179231            0            0            0 
  133500     294.7541   -1216.8343    218.18715   -998.64718   -306.55087    15.113776    15.113776    15.113776            0            0            0 
  133600    296.20616   -1220.2867    219.26202   -1001.0247   -1393.4629    15.097597    15.097597    15.097597            0            0            0 
  133700    283.64987   -1195.2215    209.96742   -985.25408    395.08873     14.89036     14.89036     14.89036            0            0            0 
  133800    260.82969   -1209.0892    193.07513    -1016.014   -376.76534    14.959066    14.959066    14.959066            0            0            0 
  133900    282.53308   -1221.4607    209.14073     -1012.32   -1345.7115    14.991645    14.991645    14.991645            0            0            0 
  134000    310.25113    -1227.453    229.65859   -997.79442   -254.71497    14.876204    14.876204    14.876204            0            0            0 
  134100    271.66015   -1206.5276    201.09221   -1005.4354    1932.0579    14.835508    14.835508    14.835508            0            0            0 
  134200    305.18085   -1210.2297    225.90539   -984.32427   -1837.4831    14.933833    14.933833    14.933833            0            0            0 
  134300    309.54371   -1187.4613    229.13493   -958.32632    1480.9472    14.765087    14.765087    14.765087            0            0            0 
  134400    299.38886    -1187.381    221.61796   -965.76301   -1796.3138     14.92605     14.92605     14.92605            0            0            0 
  134500    303.71536    -1201.171    224.82058   -976.35045    1306.3089    14.715937    14.715937    14.715937            0            0            0 
  134600    295.91667    -1218.408    219.04773   -999.36024   -415.56046    14.718152    14.718152    14.718152            0            0            0 
  134700    336.72639   -1195.7116    249.25649   -946.45511   -1634.5308    14.896853    14.896853    14.896853            0            0            0 
  134800    292.74804    -1165.299     216.7022   -948.59684    1112.8875    14.883282    14.883282    14.883282            0            0            0 
  134900    320.09456   -1188.8073    236.94504   -951.86224    604.18255    14.887214    14.887214    14.887214            0            0            0 
  135000    311.02392   -1181.2297    230.23063   -950.99902    465.31605    14.953644    14.953644    14.953644            0            0            0 
  135100    326.24259   -1176.6855    241.49602   -935.18948    1313.5598    14.896637    14.896637    14.896637            0            0            0 
  135200    324.33893   -1196.0308    240.08687   -955.94398    1061.2991    14.882189    14.882189    14.882189            0            0            0 
  135300    307.73165   -1198.2376    227.79358   -970.44404   -919.31565    15.004164    15.004164    15.004164            0            0            0 
  135400    294.70001   -1202.3577    218.14712   -984.21062    51.954232    14.811406    14.811406    14.811406            0            0            0 
  135500    293.48852   -1208.8238    217.25033   -991.57344    1081.2907    14.822144    14.822144    14.822144            0            0            0 
  135600    301.62074   -1191.5439    223.27008   -968.27381    1911.9846    14.917129    14.917129    14.917129            0            0            0 
  135700    300.43265   -1213.5956    222.39061   -991.20498   -1501.0308    14.932097    14.932097    14.932097            0            0            0 
  135800      305.927   -1190.7329    226.45772   -964.27517   -440.17536    14.903014    14.903014    14.903014            0            0            0 
  135900     287.5068   -1195.9789    212.82245   -983.15648    1343.6892    14.970098    14.970098    14.970098            0            0            0 
  136000    283.02635    -1201.583    209.50587   -992.07716   -722.14976    15.113984    15.113984    15.113984            0            0            0 
  136100     302.8731   -1192.6051    224.19712   -968.40798   -840.99298    15.064879    15.064879    15.064879            0            0            0 
  136200    300.98934   -1206.7741    222.80269   -983.97139    1019.1168    15.047481    15.047481    15.047481            0            0            0 
  136300    337.27316   -1194.8162    249.66123   -945.15494    1112.8216    15.128986    15.128986    15.128986            0            0            0 
  136400    298.74093   -1181.9194    221.13835    -960.7811    113.22748    15.160485    15.160485    15.160485            0            0            0 
  136500    299.03927   -1197.2153    221.35918   -975.85612   -1551.7062    15.093732    15.093732    15.093732            0            0            0 
  136600    296.03738   -1200.7975    219.13708   -981.66045    1688.6768    14.664745    14.664745    14.664745            0            0            0 
  136700    296.94831   -1218.2413    219.81138   -998.42994    429.95467    14.846449    14.846449    14.846449            0            0            0 
  136800    292.87634   -1214.5428    216.79717   -997.74565   -528.21901    14.970462    14.970462    14.970462            0            0            0 
  136900    278.08446   -1230.6624    205.84771   -1024.8146    276.07993     14.81616     14.81616     14.81616            0            0            0 
  137000    281.58694   -1230.3318    208.44037   -1021.8914    205.20253    14.752159    14.752159    14.752159            0            0            0 
  137100    303.71108   -1233.5414    224.81742    -1008.724    1721.6544    14.690026    14.690026    14.690026            0            0            0 
  137200    308.42239   -1223.9969    228.30489   -995.69204   -994.96272    14.924693    14.924693    14.924693            0            0            0 
  137300    289.41712   -1221.7658    214.23654   -1007.5292    426.55865    14.834488    14.834488    14.834488            0            0            0 
  137400    283.92809   -1205.7673    210.17337   -995.59395   -1055.9603    14.994555    14.994555    14.994555            0            0            0 
  137500    286.57633   -1191.0575    212.13368   -978.92385    153.02923    15.013568    15.013568    15.013568            0            0            0 
  137600    278.03391   -1202.4252    205.81029   -996.61487     335.9534    14.907785    14.907785    14.907785            0            0            0 
  137700    314.75467    -1202.705    232.99226    -969.7127   -321.20607    14.876693    14.876693    14.876693            0            0            0 
  137800    280.14112   -1191.8631    207.37012   -984.49301   -302.00417    14.880533    14.880533    14.880533            0            0            0 
  137900    314.12531   -1215.1672    232.52639   -982.64085    812.12336    14.845961    14.845961    14.845961            0            0            0 
  138000    284.19463   -1227.6802    210.37067   -1017.3095    1213.7426    14.904197    14.904197    14.904197            0            0            0 
  138100    290.76244   -1211.1885    215.23239   -995.95613   -2159.0804    15.000705    15.000705    15.000705            0            0            0 
  138200    285.66893   -1200.1735    211.46199    -988.7115   -567.86373    14.899705    14.899705    14.899705            0            0            0 
  138300    330.40093   -1218.4905    244.57417   -973.91634    893.24507     14.82952     14.82952     14.82952            0            0            0 
  138400    286.17279   -1182.9467    211.83497   -971.11172    -91.01711    14.960926    14.960926    14.960926            0            0            0 
  138500    297.23923   -1186.8409    220.02673   -966.81417    702.79875    14.858091    14.858091    14.858091            0            0            0 
  138600    310.41365   -1212.1989    229.77889   -982.42002   -827.31675    14.926271    14.926271    14.926271            0            0            0 
  138700    295.62055   -1205.9483    218.82853   -987.11975    2439.2767    14.694911    14.694911    14.694911            0            0            0 
  138800     293.5648   -1193.1027    217.30679   -975.79594   -1992.9374    14.953825    14.953825    14.953825            0            0            0 
  138900    330.10793   -1203.7965    244.35728   -959.43923    399.11086    14.889528    14.889528    14.889528            0            0            0 
  139000    307.74685   -1176.2701    227.80484   -948.46524    5.9555439    14.887663    14.887663    14.887663            0            0            0 
  139100    314.40791   -1208.7828    232.73558   -976.04727   -2058.4619    14.895456    14.895456    14.895456            0            0            0 
  139200    325.56518   -1200.8393    240.99458   -959.84473     1215.143    14.909781    14.909781    14.909781            0            0            0 
  139300    306.33877   -1205.1846    226.76252   -978.42203   -602.04087    15.027923    15.027923    15.027923            0            0            0 
  139400    313.03743   -1221.9175     231.7211   -990.19636    1850.3178    14.777695    14.777695    14.777695            0            0            0 
  139500    303.97806   -1212.5122    225.01505    -987.4972   -1484.9571    14.986183    14.986183    14.986183            0            0            0 
  139600    307.98295   -1218.9214    227.97961   -990.94182    159.23615    14.999934    14.999934    14.999934            0            0            0 
  139700    297.21485   -1208.6619    220.00869   -988.65321    1382.8797    15.014877    15.014877    15.014877            0            0            0 
  139800    296.35686   -1213.2119    219.37357   -993.83829   -268.79962    14.949591    14.949591    14.949591            0            0            0 
  139900    288.01229   -1213.2139    213.19663   -1000.0173   -936.65392    14.974517    14.974517    14.974517            0            0            0 
  140000    323.62982   -1230.1982    239.56196   -990.63624   -2801.8408    15.022339    15.022339    15.022339            0            0            0 
  140100     308.3227   -1207.7092     228.2311   -979.47809    1313.1691    14.819703    14.819703    14.819703            0            0            0 
  140200      270.342   -1185.1148    200.11647   -984.99828   -415.83388    15.013812    15.013812    15.013812            0            0            0 
  140300    297.53135    -1198.218    220.24297     -977.975     1375.669    14.798953    14.798953    14.798953            0            0            0 
  140400    281.94928   -1187.3743    208.70858   -978.66569   -906.30338    14.775386    14.775386    14.775386            0            0            0 
  140500    310.06511   -1219.1394    229.52089   -989.61854    1654.9578    14.585403    14.585403    14.585403            0            0            0 
  140600    295.98026   -1220.7058     219.0948    -1001.611   -257.08654    14.677231    14.677231    14.677231            0            0            0 
  140700    308.77994   -1227.6941    228.56956   -999.12457    1524.6958    14.793896    14.793896    14.793896            0            0            0 
  140800    299.82436    -1205.522    221.94033   -983.58168   -960.17149    14.879126    14.879126    14.879126            0            0            0 
  140900    317.22074   -1223.9296    234.81773   -989.11189    1680.1063    14.721647    14.721647    14.721647            0            0            0 
  141000    322.19738   -1227.4061    238.50161   -988.90453    27.119587    14.818708    14.818708    14.818708            0            0            0 
  141100    300.60699   -1208.2404    222.51966   -985.72071   -1501.6676    14.865218    14.865218    14.865218            0            0            0 
  141200    302.45758   -1197.0272    223.88953   -973.13765    747.75229    14.796069    14.796069    14.796069            0            0            0 
  141300    307.73208   -1211.9555     227.7939   -984.16163   -293.08578    14.844296    14.844296    14.844296            0            0            0 
  141400    282.81937   -1191.3965    209.35265   -982.04384   -24.294424    14.829813    14.829813    14.829813            0            0            0 
  141500    317.95563   -1197.6504    235.36173    -962.2887   -556.22445    14.863048    14.863048    14.863048            0            0            0 
  141600    318.10609   -1183.4304     235.4731   -947.95726    666.93327    14.968765    14.968765    14.968765            0            0            0 
  141700    308.71279   -1213.9613    228.51985    -985.4414    458.59404    14.886472    14.886472    14.886472            0            0            0 
  141800    307.32609   -1213.3754    227.49337   -985.88199   -68.543156    14.909334    14.909334    14.909334            0            0            0 
  141900    276.25831   -1210.6906    204.49593   -1006.1947   -1818.8828    15.204472    15.204472    15.204472            0            0            0 
  142000    309.00006   -1200.6778     228.7325   -971.94529    636.56672    15.148585    15.148585    15.148585            0            0            0 
  142100    288.66572    -1186.757    213.68032   -973.07667   -767.36978    15.051998    15.051998    15.051998            0            0            0 
  142200    314.16539   -1220.0103    232.55606   -987.45425    735.89846    14.825084    14.825084    14.825084            0            0            0 
  142300    316.13614   -1209.5262    234.01487   -975.51136   -24.764556    14.971582    14.971582    14.971582            0            0            0 
  142400    294.33423   -1204.1601    217.87635    -986.2838   -724.28289    14.981875    14.981875    14.981875            0            0            0 
  142500    295.85954   -1171.3685    219.00544   -952.36306     1312.798    14.989317    14.989317    14.989317            0            0            0 
  142600    313.70517   -1195.8724    232.21539   -963.65705   -550.20378    15.016874    15.016874    15.016874            0            0            0 
  142700    299.42488   -1192.7086    221.64462   -971.06397    -2204.061    15.033183    15.033183    15.033183            0            0            0 
  142800    324.26089    -1193.967     240.0291   -953.93787    2558.3387    14.911633    14.911633    14.911633            0            0            0 
  142900    316.63256   -1183.9168    234.38234   -949.53449   -1288.0097     15.09353     15.09353     15.09353            0            0            0 
  143000    318.32222   -1170.8758    235.63308    -935.2427    2368.8292    14.915929    14.915929    14.915929            0            0            0 
  143100    301.94116   -1176.3025    223.50726   -952.79526    1125.6944    14.985633    14.985633    14.985633            0            0            0 
  143200    320.87507   -1202.5054     237.5228   -964.98257   -187.29552    14.866231    14.866231    14.866231            0            0            0 
  143300    295.50412   -1207.9113    218.74234   -989.16898   -941.17486    14.887604    14.887604    14.887604            0            0            0 
  143400    299.39018   -1209.5723    221.61894   -987.95337    738.64103    15.031649    15.031649    15.031649            0            0            0 
  143500    295.78598   -1214.2555    218.95099   -995.30447   -764.24379    15.124548    15.124548    15.124548            0            0            0 
  143600    271.38057    -1212.358    200.88526   -1011.4727   -382.43207    15.045627    15.045627    15.045627            0            0            0 
  143700    300.16639    -1240.349    222.19352   -1018.1554    -351.4553    14.963042    14.963042    14.963042            0            0            0 
  143800    292.30645   -1225.9048    216.37532   -1009.5295   -81.633778    14.988039    14.988039    14.988039            0            0            0 
  143900    291.68782   -1216.4458    215.91739   -1000.5284   -1199.2297    15.007513    15.007513    15.007513            0            0            0 
  144000     320.4927   -1228.1217    237.23975   -990.88195    865.86605    14.949672    14.949672    14.949672            0            0            0 
  144100    291.69482   -1195.2386    215.92257   -979.31608    504.35088    15.039442    15.039442    15.039442            0            0            0 
  144200    282.39936   -1213.1672    209.04175   -1004.1255    773.39713    14.888702    14.888702    14.888702            0            0            0 
  144300    295.58612   -1210.4232    218.80304   -991.62013    628.10235    14.869064    14.869064    14.869064            0            0            0 
  144400    324.16896   -1186.8326    239.96105    -946.8716   -1676.6074    15.054263    15.054263    15.054263            0            0            0 
  144500    316.98327   -1204.0536    234.64195   -969.41167    234.39792    15.059905    15.059905    15.059905            0            0            0 
  144600    293.80966   -1208.9667    217.48804   -991.47865   -723.29877    15.135079    15.135079    15.135079            0            0            0 
  144700    303.64383   -1216.7331    224.76764   -991.96551   -1204.3685    15.106551    15.106551    15.106551            0            0            0 
  144800    286.67058   -1190.8695    212.20345   -978.66603    1339.4778    15.220044    15.220044    15.220044            0            0            0 
  144900    286.37655   -1219.0779     211.9858   -1007.0921    3041.9829    15.116617    15.116617    15.116617            0            0            0 
  145000    293.99993   -1209.3944    217.62889   -991.76556    333.54439    15.256749    15.256749    15.256749            0            0            0 
  145100    310.11703    -1211.456    229.55933   -981.89666    1411.0165    15.105461    15.105461    15.105461            0            0            0 
  145200    305.20087   -1210.9763    225.92021   -985.05609   -513.69172     15.08907     15.08907     15.08907            0            0            0 
  145300    281.92925   -1212.3668    208.69376   -1003.6731    1087.8091    14.947842    14.947842    14.947842            0            0            0 
  145400    327.79665   -1189.3634    242.64639   -946.71698   -792.75013    15.128784    15.128784    15.128784            0            0            0 
  145500    290.94028   -1174.6378    215.36403   -959.27373   -388.65334    15.181356    15.181356    15.181356            0            0            0 
  145600    330.79521   -1204.1159    244.86603   -959.24983    67.957133    15.042572    15.042572    15.042572            0            0            0 
  145700    321.18425   -1198.2679    237.75166   -960.51625   -287.74652    14.936539    14.936539    14.936539            0            0            0 
  145800    284.67804   -1193.9071     210.7285   -983.17862    1428.5941    14.816375    14.816375    14.816375            0            0            0 
  145900    281.87631   -1190.4427    208.65457   -981.78811   -2182.2787    15.114007    15.114007    15.114007            0            0            0 
  146000    338.06501   -1216.5807    250.24738   -966.33334     205.8811    14.846322    14.846322    14.846322            0            0            0 
  146100     270.3363   -1200.6534    200.11225   -1000.5411   -1134.8601    14.784824    14.784824    14.784824            0            0            0 
  146200    302.30271    -1199.577    223.77489   -975.80211   -122.90939    14.720639    14.720639    14.720639            0            0            0 
  146300    296.84759   -1191.4361    219.73682   -971.69931   -1530.1346    15.017582    15.017582    15.017582            0            0            0 
  146400    279.48881   -1188.0289    206.88726    -981.1416    2018.6683    14.826866    14.826866    14.826866            0            0            0 
  146500    295.32798   -1224.4764    218.61196   -1005.8645    754.29688     14.83473     14.83473     14.83473            0            0            0 
  146600    267.20751    -1221.353    197.79622   -1023.5568   -1852.1151    14.963036    14.963036    14.963036            0            0            0 
  146700    285.54873   -1237.5075    211.37302   -1026.1345   -89.078859    14.752652    14.752652    14.752652            0            0            0 
  146800    305.58786   -1216.4291    226.20668   -990.22238   -1077.1775    14.836477    14.836477    14.836477            0            0            0 
  146900    294.43671   -1199.3256    217.95221    -981.3734   -1543.0331     14.77211     14.77211     14.77211            0            0            0 
  147000    290.71298   -1224.7598    215.19577    -1009.564   -1066.5183     14.84926     14.84926     14.84926            0            0            0 
  147100    308.79392   -1216.3361    228.57991   -987.75618    2837.0463     14.81713     14.81713     14.81713            0            0            0 
  147200    286.91756   -1203.9967    212.38628   -991.61045   -1278.3853    14.948054    14.948054    14.948054            0            0            0 
  147300    301.67201   -1206.1627    223.30803   -982.85466   -97.035186    14.855279    14.855279    14.855279            0            0            0 
  147400    318.94354     -1209.42    236.09301   -973.32699    800.70098    14.943851    14.943851    14.943851            0            0            0 
  147500    312.66894   -1182.3333    231.44834     -950.885    4.3203351    14.933122    14.933122    14.933122            0            0            0 
  147600    354.61323   -1198.4533    262.49695   -935.95631   -552.05799     14.90751     14.90751     14.90751            0            0            0 
  147700     327.0408    -1152.162    242.08688   -910.07514    312.44516    15.019878    15.019878    15.019878            0            0            0 
  147800    296.05299   -1164.8993    219.14863   -945.75063    1658.8354    14.912529    14.912529    14.912529            0            0            0 
  147900    313.67933   -1201.1762    232.19626   -968.97996    365.11107    14.928219    14.928219    14.928219            0            0            0 
  148000    287.20037   -1198.2709    212.59562   -985.67523   -1523.1342     15.00898     15.00898     15.00898            0            0            0 
  148100    315.31812   -1216.0678    233.40935    -982.6585    3521.4475    14.545569    14.545569    14.545569            0            0            0 
  148200     299.2537   -1220.5182    221.51791   -999.00032    90.322294    14.838244    14.838244    14.838244            0            0            0 
  148300    282.00286   -1212.2441    208.74824   -1003.4959    1024.9191    14.838275    14.838275    14.838275            0            0            0 
  148400    301.52682   -1242.9597    223.20056   -1019.7591    1443.9149    14.748654    14.748654    14.748654            0            0            0 
  148500    273.59132   -1217.0068    202.52173    -1014.485   -1549.4941    14.950356    14.950356    14.950356            0            0            0 
  148600    314.26728   -1232.1048    232.63148   -999.47333    691.89549    14.791785    14.791785    14.791785            0            0            0 
  148700    295.07932    -1205.434    218.42789   -987.00613   -74.251779     14.72409     14.72409     14.72409            0            0            0 
  148800    299.31197   -1212.1671    221.56105   -990.60604   -483.61703    14.796696    14.796696    14.796696            0            0            0 
  148900    285.22571    -1196.864    211.13391   -985.73009    1163.6503    15.081751    15.081751    15.081751            0            0            0 
  149000    290.39341    -1191.296    214.95922   -976.33681   -637.17333    15.357019    15.357019    15.357019            0            0            0 
  149100    318.73518   -1168.8998    235.93878   -932.96101    715.89601     15.17706     15.17706     15.17706            0            0            0 
  149200    319.80272   -1177.5261    236.72901   -940.79712   -1306.4771    15.259862    15.259862    15.259862            0            0            0 
  149300     349.4082   -1191.5056    258.64401   -932.86156    869.79807    15.066611    15.066611    15.066611            0            0            0 
  149400    301.73194   -1188.2224    223.35239      -964.87    1165.3315    14.982188    14.982188    14.982188            0            0            0 
  149500    320.37826   -1229.7717    237.15504   -992.61662   -1775.8158    15.032014    15.032014    15.032014            0            0            0 
  149600    309.20754   -1235.6418    228.88609   -1006.7557   -1629.6492    14.947705    14.947705    14.947705            0            0            0 
  149700    291.41619   -1214.3109    215.71632   -998.59456    367.62628    14.927729    14.927729    14.927729            0            0            0 
  149800    314.81301   -1212.2368    233.03545   -979.20132    2568.8799    14.752073    14.752073    14.752073            0            0            0 
  149900    292.07416   -1214.7804    216.20337     -998.577   -2458.3043    14.928094    14.928094    14.928094            0            0            0 
  150000    276.93642   -1222.5098    204.99789   -1017.5119   -371.05076    14.934214    14.934214    14.934214            0            0            0 
  150100    301.10886   -1202.5355    222.89117    -979.6443    2451.3546    14.957216    14.957216    14.957216            0            0            0 
  150200    306.86408   -1210.4374    227.15138   -983.28605   -711.94165    15.066415    15.066415    15.066415            0            0            0 
  150300    306.39099   -1217.8221    226.80118   -991.02094    167.73832    14.965328    14.965328    14.965328            0            0            0 
  150400    293.16061   -1202.6302    217.00759   -985.62256    514.22615    15.044099    15.044099    15.044099            0            0            0 
  150500    315.41122   -1209.8988    233.47827   -976.42056    925.12062    14.782423    14.782423    14.782423            0            0            0 
  150600    320.97438   -1197.8673    237.59631   -960.27097   -1013.0506    14.952614    14.952614    14.952614            0            0            0 
  150700    333.68797   -1202.5214    247.00734   -955.51409    44.178464    14.889574    14.889574    14.889574            0            0            0 
  150800    318.71925   -1195.3755    235.92699   -959.44852   -1778.1647    14.963162    14.963162    14.963162            0            0            0 
  150900    289.34676   -1194.5831    214.18445   -980.39863    868.51821     15.00756     15.00756     15.00756            0            0            0 
  151000    317.22449   -1198.3131    234.82051   -963.49258   -1724.2414    15.181904    15.181904    15.181904            0            0            0 
  151100    316.37849   -1186.9847    234.19427   -952.79041   -271.28626    15.194991    15.194991    15.194991            0            0            0 
  151200    294.17655    -1209.115    217.75963   -991.35534   -818.77718    15.013449    15.013449    15.013449            0            0            0 
  151300    279.78568   -1213.6059    207.10701   -1006.4989   -147.58801    15.013759    15.013759    15.013759            0            0            0 
  151400    307.11662   -1216.3293    227.33832   -988.99102   -649.63627    15.050323    15.050323    15.050323            0            0            0 
  151500    289.70556   -1200.7769    214.45005   -986.32687    772.53204    15.052523    15.052523    15.052523            0            0            0 
  151600    294.72883   -1196.2087    218.16845   -978.04026   -1097.5822    15.142911    15.142911    15.142911            0            0            0 
  151700    303.37684   -1221.4336       224.57   -996.86363    3755.0801    14.892077    14.892077    14.892077            0            0            0 
  151800    300.05751   -1221.3648    222.11292   -999.25186   -1370.9096    15.104287    15.104287    15.104287            0            0            0 
  151900     307.8331   -1209.8519    227.86868   -981.98326   -2559.9529    15.133594    15.133594    15.133594            0            0            0 
  152000    285.33021   -1220.0882    211.21126   -1008.8769    1218.5671    15.088188    15.088188    15.088188            0            0            0 
  152100    274.50005   -1202.7056    203.19441   -999.51117   -893.78785    15.218464    15.218464    15.218464            0            0            0 
  152200    288.85324   -1194.3286    213.81913   -980.50944   -733.14014    15.112863    15.112863    15.112863            0            0            0 
  152300    299.03803   -1185.6397    221.35827   -964.28139     1517.656    15.073765    15.073765    15.073765            0            0            0 
  152400    293.35877   -1197.7563    217.15428   -980.60199   -839.61509     15.09986     15.09986     15.09986            0            0            0 
  152500    312.55656   -1205.5044    231.36514   -974.13925    2483.9672    15.017374    15.017374    15.017374            0            0            0 
  152600    301.14622   -1199.5589    222.91882   -976.64009   -1362.2401    15.163707    15.163707    15.163707            0            0            0 
  152700    306.06158   -1197.1529    226.55734   -970.59557    1095.8379    15.073425    15.073425    15.073425            0            0            0 
  152800    279.51494   -1199.0736     206.9066     -992.167   -191.04058    15.159061    15.159061    15.159061            0            0            0 
  152900     283.1853   -1181.7128    209.62353   -972.08924   -1598.8759    15.269651    15.269651    15.269651            0            0            0 
  153000    343.20812     -1206.18    254.05449   -952.12554    75.750979    15.102207    15.102207    15.102207            0            0            0 
  153100    280.39083   -1159.7415    207.55496   -952.18657   -249.06471    15.213356    15.213356    15.213356            0            0            0 
  153200    342.23563   -1185.5546    253.33462   -932.21999    1791.0719    15.234277    15.234277    15.234277            0            0            0 
  153300    322.01931    -1169.351     238.3698   -930.98119   -1400.2708    15.429473    15.429473    15.429473            0            0            0 
  153400    309.40554   -1194.9382    229.03265   -965.90557   -666.87624      15.2818      15.2818      15.2818            0            0            0 
  153500    305.73176    -1193.017     226.3132   -966.70379    1177.1495    15.247688    15.247688    15.247688            0            0            0 
  153600     276.2446   -1161.0173    204.48578   -956.53155    671.36806    15.273079    15.273079    15.273079            0            0            0 
  153700    311.25807   -1209.5632    230.40396    -979.1592   -482.91447    15.165496    15.165496    15.165496            0            0            0 
  153800    323.07734   -1240.6435    239.15299   -1001.4905   -736.90204    14.954998    14.954998    14.954998            0            0            0 
  153900    317.76334   -1200.2855    235.21939   -965.06612   -78.112223    15.022694    15.022694    15.022694            0            0            0 
  154000    304.69511   -1199.9788    225.54583   -974.43298    -1411.096    15.041323    15.041323    15.041323            0            0            0 
  154100    312.52144    -1217.604    231.33915   -986.26481   -335.25724    15.036859    15.036859    15.036859            0            0            0 
  154200    314.11237   -1222.4991    232.51681   -989.98228    2037.5294    14.817405    14.817405    14.817405            0            0            0 
  154300    294.50925   -1219.5182     218.0059   -1001.5123   -865.74438    14.972063    14.972063    14.972063            0            0            0 
  154400    288.22295   -1208.2123    213.35257   -994.85976   -100.84109    14.904266    14.904266    14.904266            0            0            0 
  154500     293.1087   -1219.1342    216.96917    -1002.165   -1534.5199    14.803435    14.803435    14.803435            0            0            0 
  154600    314.23251   -1243.2854    232.60574   -1010.6797   -568.13293    14.791745    14.791745    14.791745            0            0            0 
  154700    279.11454   -1231.4192    206.61021    -1024.809   -460.27573    14.875696    14.875696    14.875696            0            0            0 
  154800    278.04671   -1248.8471    205.81977   -1043.0273    2270.1013    14.852295    14.852295    14.852295            0            0            0 
  154900    289.77746   -1252.1852    214.50327    -1037.682   -102.77122    14.962748    14.962748    14.962748            0            0            0 
  155000    269.28626   -1224.7132    199.33498   -1025.3782    1328.8034    14.860179    14.860179    14.860179            0            0            0 
  155100    302.18046   -1221.6896     223.6844   -998.00517    157.08332    14.984385    14.984385    14.984385            0            0            0 
  155200    305.24044   -1210.7364     225.9495   -984.78693   -1647.7815    14.982938    14.982938    14.982938            0            0            0 
  155300    305.99306   -1232.1991    226.50662   -1005.6925   -667.33694    14.907901    14.907901    14.907901            0            0            0 
  155400    302.47291   -1203.8335    223.90088    -979.9326   -359.90263    14.940312    14.940312    14.940312            0            0            0 
  155500    306.63976   -1192.4794    226.98533   -965.49412   -779.75555    15.075542    15.075542    15.075542            0            0            0 
  155600    301.02084   -1165.2288    222.82601   -942.40275    518.20044     15.17867     15.17867     15.17867            0            0            0 
  155700    343.43016   -1206.9656    254.21885   -952.74674    3321.4251     14.82706     14.82706     14.82706            0            0            0 
  155800    296.43149   -1176.2176    219.42881   -956.78878    414.95328    14.902344    14.902344    14.902344            0            0            0 
  155900    294.38522   -1177.4235    217.91409   -959.50938    739.36066    14.909312    14.909312    14.909312            0            0            0 
  156000    297.27335    -1195.205    220.05199   -975.15298    1548.8828    14.833656    14.833656    14.833656            0            0            0 
  156100    300.35054   -1173.7447    222.32983   -951.41485    368.72905    14.903726    14.903726    14.903726            0            0            0 
  156200    296.12159   -1182.5465    219.19941   -963.34713    436.82374    14.805366    14.805366    14.805366            0            0            0 
  156300    320.11848   -1185.1427    236.96274   -948.17993    239.68106    14.708914    14.708914    14.708914            0            0            0 
  156400    319.30556    -1183.404    236.36099   -947.04305    1402.6029    14.760443    14.760443    14.760443            0            0            0 
  156500    289.54702   -1184.4724    214.33269   -970.13966   -342.78993    14.887434    14.887434    14.887434            0            0            0 
  156600    316.18417   -1197.0194    234.05043   -962.96894   -1707.4502    14.991995    14.991995    14.991995            0            0            0 
  156700    303.97168    -1197.523    225.01033    -972.5127   -587.68732    15.069652    15.069652    15.069652            0            0            0 
  156800    289.17902   -1206.1786    214.06029   -992.11834   -233.97953    15.015477    15.015477    15.015477            0            0            0 
  156900    291.98196   -1221.9338    216.13512   -1005.7987    331.53576    15.008061    15.008061    15.008061            0            0            0 
  157000    277.49987   -1192.2246    205.41498   -986.80964    63.541974    15.027998    15.027998    15.027998            0            0            0 
  157100    326.90158    -1208.682    241.98382   -966.69821    893.43016     14.88744     14.88744     14.88744            0            0            0 
  157200    275.61917   -1200.8464    204.02282   -996.82359   -1045.9097    14.936413    14.936413    14.936413            0            0            0 
  157300    303.84067   -1222.0446    224.91334   -997.13125   -60.705159    14.957371    14.957371    14.957371            0            0            0 
  157400     300.4279   -1188.3463    222.38709   -965.95923   -1851.7812    15.057812    15.057812    15.057812            0            0            0 
  157500    311.85624   -1187.6463    230.84675   -956.79957   -696.97404    15.124442    15.124442    15.124442            0            0            0 
  157600     306.3165   -1194.7247    226.74604   -967.97869    129.30915    15.138264    15.138264    15.138264            0            0            0 
  157700    320.67751   -1197.5149    237.37656   -960.13831    1422.0276    15.019958    15.019958    15.019958            0            0            0 
  157800    308.92618   -1181.5033    228.67781    -952.8255    976.44235    15.071004    15.071004    15.071004            0            0            0 
  157900    297.20855    -1191.613    220.00402   -971.60901    -932.5871    15.091807    15.091807    15.091807            0            0            0 
  158000    305.66866   -1212.9525    226.26649   -986.68603   -8.1829244    14.868972    14.868972    14.868972            0            0            0 
  158100    281.88672   -1223.8782    208.66227    -1015.216   -611.70625    14.895493    14.895493    14.895493            0            0            0 
  158200    281.01485   -1215.6698    208.01688   -1007.6529   -84.522443    15.010638    15.010638    15.010638            0            0            0 
  158300    288.20956   -1203.8233    213.34266   -990.48068   -915.97039    15.074404    15.074404    15.074404            0            0            0 
  158400    327.12687    -1211.677    242.15059   -969.52643    951.07548    14.875952    14.875952    14.875952            0            0            0 
  158500    307.53568    -1218.653    227.64852   -991.00449    241.16358    15.015721    15.015721    15.015721            0            0            0 
  158600    287.83572   -1211.8668    213.06593   -998.80089     356.7119    15.046271    15.046271    15.046271            0            0            0 
  158700    277.26141    -1232.386    205.23846   -1027.1476   -991.51055    14.847312    14.847312    14.847312            0            0            0 
  158800    261.47957   -1193.0292     193.5562     -999.473   -1052.9624    14.983313    14.983313    14.983313            0            0            0 
  158900    294.03994   -1210.5199     217.6585   -992.86138   -1072.6279    15.119602    15.119602    15.119602            0            0            0 
  159000    296.26195   -1214.8032    219.30331   -995.49989    1836.6086    14.998712    14.998712    14.998712            0            0            0 
  159100    311.10152   -1202.6317    230.28808   -972.34367   -1309.2412    15.184646    15.184646    15.184646            0            0            0 
  159200    302.13292   -1191.1782    223.64921     -967.529    635.23699    15.094677    15.094677    15.094677            0            0            0 
  159300    303.73222   -1206.5608    224.83307   -981.72771   -1052.4087    15.166177    15.166177    15.166177            0            0            0 
  159400    295.88889   -1207.0114    219.02717   -987.98418   -664.06225    15.121699    15.121699    15.121699            0            0            0 
  159500    298.92124   -1203.7888    221.27181   -982.51702    1943.7768    14.892858    14.892858    14.892858            0            0            0 
  159600     322.1077    -1230.963    238.43523   -992.52775    41.960022    14.756107    14.756107    14.756107            0            0            0 
  159700    305.09916   -1223.1629    225.84492   -997.31795    187.85941    14.915121    14.915121    14.915121            0            0            0 
  159800     283.7677   -1209.3326    210.05464     -999.278    720.28497    14.986536    14.986536    14.986536            0            0            0 
  159900     298.3205   -1206.2374    220.82713   -985.41031   -1185.4903    15.087472    15.087472    15.087472            0            0            0 
  160000    298.28464   -1213.2539    220.80058   -992.45334    -273.4178    14.995848    14.995848    14.995848            0            0            0 
  160100    303.34476   -1230.0947    224.54625   -1005.5484    1547.9125    14.769196    14.769196    14.769196            0            0            0 
  160200    287.34216    -1199.509    212.70058   -986.80843    -581.8059    14.966249    14.966249    14.966249            0            0            0 
  160300    298.78067   -1206.3416    221.16776   -985.17388    1866.3739     14.83341     14.83341     14.83341            0            0            0 
  160400    300.05787   -1212.1905    222.11319   -990.07731   -379.78904    15.057261    15.057261    15.057261            0            0            0 
  160500    305.72556   -1212.9134     226.3086   -986.60482    2781.3812    14.984088    14.984088    14.984088            0            0            0 
  160600    307.02334   -1192.5095    227.26927   -965.24024   -741.05471    15.063391    15.063391    15.063391            0            0            0 
  160700    324.89575   -1203.6987    240.49904   -963.19969   -846.46456    14.946563    14.946563    14.946563            0            0            0 
  160800    287.51786   -1194.0442    212.83064   -981.21359    2030.6796    14.926902    14.926902    14.926902            0            0            0 
  160900    290.87849   -1199.4088    215.31829   -984.09056     147.1377    14.933582    14.933582    14.933582            0            0            0 
  161000     306.9434   -1212.1124    227.21009   -984.90227     1704.373    14.807258    14.807258    14.807258            0            0            0 
  161100    303.51021   -1221.7137    224.66873   -997.04494   -1778.5523    14.835231    14.835231    14.835231            0            0            0 
  161200    303.09109    -1211.427    224.35848   -987.06852    942.13293    14.694798    14.694798    14.694798            0            0            0 
  161300    287.73434   -1202.9863    212.99088   -989.99542   -859.31698    14.882305    14.882305    14.882305            0            0            0 
  161400    295.42918   -1204.0211    218.68687    -985.3342    12.084824    14.847348    14.847348    14.847348            0            0            0 
  161500    287.45488   -1207.6877    212.78402   -994.90366    519.00575    14.966201    14.966201    14.966201            0            0            0 
  161600    312.38673   -1202.3986    231.23943   -971.15916   -674.07117    14.992991    14.992991    14.992991            0            0            0 
  161700    319.18244   -1201.9526    236.26985   -965.68276   -1115.9131    15.035755    15.035755    15.035755            0            0            0 
  161800    291.99347   -1211.4855    216.14364    -995.3419    2159.8789    14.976788    14.976788    14.976788            0            0            0 
  161900    279.23226   -1206.3976    206.69735   -999.70026    336.37828    14.990707    14.990707    14.990707            0            0            0 
  162000    306.42294    -1213.592    226.82483   -986.76718   -1017.2655      15.0084      15.0084      15.0084            0            0            0 
  162100    290.90772   -1204.4537    215.33993   -989.11381   -1668.6467    15.057815    15.057815    15.057815            0            0            0 
  162200    293.76377   -1221.7959    217.45407   -1004.3419    351.14658    14.939641    14.939641    14.939641            0            0            0 
  162300    285.39234   -1185.6521    211.25725   -974.39487   -2296.8839    15.169051    15.169051    15.169051            0            0            0 
  162400    335.74156   -1196.7283    248.52748   -948.20078    1893.5105    14.960106    14.960106    14.960106            0            0            0 
  162500    296.87544   -1161.2946    219.75744   -941.53714   -557.23481    15.237436    15.237436    15.237436            0            0            0 
  162600     280.6313   -1187.2752    207.73297   -979.54228     1815.469    15.192477    15.192477    15.192477            0            0            0 
  162700    276.97049   -1206.7086    205.02311   -1001.6855   -964.76203    15.336009    15.336009    15.336009            0            0            0 
  162800     316.3712   -1208.4059    234.18887   -974.21707   -690.07031    15.356564    15.356564    15.356564            0            0            0 
  162900    308.19837   -1187.4022    228.13906   -959.26316   -1991.8374    15.382373    15.382373    15.382373            0            0            0 
  163000    297.99232   -1190.8051     220.5842   -970.22095    1818.8424    15.097624    15.097624    15.097624            0            0            0 
  163100    298.88553   -1213.2969    221.24538   -992.05157   0.94186141    15.180247    15.180247    15.180247            0            0            0 
  163200    267.53561    -1214.267    198.03909   -1016.2279   -283.54958    15.169734    15.169734    15.169734            0            0            0 
  163300    282.61823   -1200.0141    209.20376   -990.81034    1180.7308    15.033373    15.033373    15.033373            0            0            0 
  163400    299.97616   -1213.3505     222.0527   -991.29781    872.11631    14.992558    14.992558    14.992558            0            0            0 
  163500    297.26488   -1232.1119    220.04572   -1012.0662    578.74198    14.955211    14.955211    14.955211            0            0            0 
  163600    271.19769   -1198.2101    200.74989   -997.46025    793.68824    14.835504    14.835504    14.835504            0            0            0 
  163700    297.24173   -1191.0633    220.02858    -971.0347   -878.38953    14.997582    14.997582    14.997582            0            0            0 
  163800    305.12873   -1208.0508    225.86681   -982.18401     -825.973    15.199756    15.199756    15.199756            0            0            0 
  163900    294.18158   -1205.7917    217.76336   -988.02836   -1563.3074    15.203389    15.203389    15.203389            0            0            0 
  164000    319.04485    -1201.247    236.16801   -965.07896    1959.3187    14.890382    14.890382    14.890382            0            0            0 
  164100     312.9038   -1194.1313    231.62219   -962.50908    160.72278     15.13248     15.13248     15.13248            0            0            0 
  164200    317.96885   -1209.2881    235.37151   -973.91657    292.63402    15.220121    15.220121    15.220121            0            0            0 
  164300     291.0536   -1211.3158    215.44792   -995.86785   -435.02064    15.280558    15.280558    15.280558            0            0            0 
  164400    311.58222   -1224.7989    230.64391   -994.15503    -1225.573     15.36101     15.36101     15.36101            0            0            0 
  164500    285.11349   -1199.7493    211.05084   -988.69841   -706.70573    15.363819    15.363819    15.363819            0            0            0 
  164600    290.43185   -1207.5401    214.98768   -992.55238    1310.9802    15.186538    15.186538    15.186538            0            0            0 
  164700     313.2762   -1230.7882    231.89785   -998.89036   -1020.3374    15.167722    15.167722    15.167722            0            0            0 
  164800    309.81416   -1224.6245    229.33513   -995.28941    1231.1599    14.999886    14.999886    14.999886            0            0            0 
  164900    324.33729   -1231.8831    240.08565   -991.79743    -9.074708    15.180433    15.180433    15.180433            0            0            0 
  165000    294.26153   -1216.2196    217.82254   -998.39704    1346.0038    15.092382    15.092382    15.092382            0            0            0 
  165100    304.29741    -1203.618    225.25144   -978.36655    1935.7755    15.046948    15.046948    15.046948            0            0            0 
  165200    296.11654   -1218.8384    219.19567   -999.64277     2059.128    14.881552    14.881552    14.881552            0            0            0 
  165300    289.27756   -1194.0791    214.13323   -979.94592   -1269.9565    15.119517    15.119517    15.119517            0            0            0 
  165400    278.56866   -1168.6652    206.20613   -962.45904    342.04394    15.127424    15.127424    15.127424            0            0            0 
  165500    269.78265   -1164.2721    199.70242   -964.56965    1083.9979    15.078936    15.078936    15.078936            0            0            0 
  165600    290.01446   -1191.9287     214.6787   -977.25001    1032.5998    15.065409    15.065409    15.065409            0            0            0 
  165700    310.06721   -1190.8928    229.52244    -961.3704    769.12561     15.08089     15.08089     15.08089            0            0            0 
  165800    312.73058   -1213.3017    231.49397   -981.80775   -344.19377    15.015558    15.015558    15.015558            0            0            0 
  165900    291.76672   -1195.8486    215.97579    -979.8728   -40.738963    15.049814    15.049814    15.049814            0            0            0 
  166000    305.63404   -1204.8043    226.24086   -978.56347   -2174.4649    15.007319    15.007319    15.007319            0            0            0 
  166100    295.38795   -1200.9344    218.65635   -982.27802    3559.8585     14.67844     14.67844     14.67844            0            0            0 
  166200      287.644   -1200.4145    212.92401   -987.49048   -657.17306    14.860639    14.860639    14.860639            0            0            0 
  166300    280.93276   -1212.1026    207.95612   -1004.1465    -720.1388    14.928376    14.928376    14.928376            0            0            0 
  166400    298.40386   -1202.9858    220.88883   -982.09692   -854.59975    15.061837    15.061837    15.061837            0            0            0 
  166500    290.97944   -1188.2517    215.39302    -972.8587    55.313474    15.246422    15.246422    15.246422            0            0            0 
  166600    294.96389   -1169.9608    218.34245   -951.61834   -542.82769    15.304992    15.304992    15.304992            0            0            0 
  166700    295.36353   -1213.0809    218.63827    -994.4426    911.20016    15.156058    15.156058    15.156058            0            0            0 
  166800    284.84635    -1203.795     210.8531   -992.94188    873.07316    15.040631    15.040631    15.040631            0            0            0 
  166900    296.52817   -1214.4353    219.50038    -994.9349   -320.36628    15.191031    15.191031    15.191031            0            0            0 
  167000    319.17099     -1221.56    236.26138   -985.29865    2811.2945    14.922773    14.922773    14.922773            0            0            0 
  167100    306.18312    -1234.784    226.64731   -1008.1367    439.54043    14.943554    14.943554    14.943554            0            0            0 
  167200    296.79862   -1200.8502    219.70058   -981.14958    831.77748    14.887974    14.887974    14.887974            0            0            0 
  167300    304.84402   -1219.1873    225.65606   -993.53122    923.73011     14.91437     14.91437     14.91437            0            0            0 
  167400    317.88207   -1236.5565    235.30727   -1001.2493    467.90328    14.846576    14.846576    14.846576            0            0            0 
  167500    281.23847   -1225.5874    208.18241    -1017.405    543.70201     14.74185     14.74185     14.74185            0            0            0 
  167600    285.93629   -1225.8786     211.6599   -1014.2187   -100.17061    14.714557    14.714557    14.714557            0            0            0 
  167700    286.80773   -1228.2689    212.30498   -1015.9639    -1545.765    14.828696    14.828696    14.828696            0            0            0 
  167800    302.95285   -1230.8917    224.25615   -1006.6355    105.66907    14.748008    14.748008    14.748008            0            0            0 
  167900    292.99166   -1225.7488    216.88253   -1008.8663   -1881.1783    14.721691    14.721691    14.721691            0            0            0 
  168000     297.8575   -1226.5098     220.4844   -1006.0254   -501.50727    14.695024    14.695024    14.695024            0            0            0 
  168100    284.61464   -1228.3627    210.68157   -1017.6811   -559.97169    14.846766    14.846766    14.846766            0            0            0 
  168200    298.84178   -1245.1017      221.213   -1023.8887     387.5831    14.893318    14.893318    14.893318            0            0            0 
  168300    282.81412   -1208.0887    209.34877    -998.7399   -267.94172    15.034485    15.034485    15.034485            0            0            0 
  168400    287.95526   -1242.4451    213.15442   -1029.2907   -1819.5677    15.020958    15.020958    15.020958            0            0            0 
  168500    316.24108   -1214.0301    234.09256   -979.93749    746.12085    14.941141    14.941141    14.941141            0            0            0 
  168600    284.13686   -1211.5539    210.32791    -1001.226    437.91478    14.987657    14.987657    14.987657            0            0            0 
  168700    298.78593   -1245.0783    221.17165   -1023.9066   -1690.0852    15.023389    15.023389    15.023389            0            0            0 
  168800    300.05589   -1271.0519    222.11172   -1048.9402    2127.2556    14.805626    14.805626    14.805626            0            0            0 
  168900    285.61739   -1227.9792    211.42384   -1016.5553     -1551.18    15.079499    15.079499    15.079499            0            0            0 
  169000    294.77034   -1231.9653    218.19918   -1013.7662     1633.412     14.76734     14.76734     14.76734            0            0            0 
  169100    275.23959   -1236.9252    203.74184   -1033.1834   -134.09819    14.824357    14.824357    14.824357            0            0            0 
  169200    290.88003   -1223.5267    215.31943   -1008.2073   -239.13503     14.87229     14.87229     14.87229            0            0            0 
  169300    303.74884   -1211.1344    224.84537   -986.28905     539.9456    14.853145    14.853145    14.853145            0            0            0 
  169400    309.98458   -1239.3269    229.46128   -1009.8656   -1923.2121    14.865905    14.865905    14.865905            0            0            0 
  169500    290.16614   -1238.6717    214.79098   -1023.8807    592.51783       14.688       14.688       14.688            0            0            0 
  169600    298.57814   -1212.4322    221.01784    -991.4144    933.93294    14.798762    14.798762    14.798762            0            0            0 
  169700     328.3178    -1192.443    243.03216   -949.41089   -1429.9466    15.078061    15.078061    15.078061            0            0            0 
  169800    298.65526   -1167.7989    221.07493   -946.72399   -815.87387    15.119845    15.119845    15.119845            0            0            0 
  169900     300.1371   -1174.1706    222.17183   -951.99877   -480.57355     15.03899     15.03899     15.03899            0            0            0 
  170000    298.97589   -1189.8434    221.31227   -968.53117   -871.76444    14.942513    14.942513    14.942513            0            0            0 
  170100    274.40517   -1197.4833    203.12417   -994.35912    273.28915    14.922455    14.922455    14.922455            0            0            0 
  170200    298.44699   -1180.3402    220.92076   -959.41942    1777.0505    14.896007    14.896007    14.896007            0            0            0 
  170300    292.03722   -1207.6323    216.17602    -991.4563   -347.22376     14.88549     14.88549     14.88549            0            0            0 
  170400    299.60194     -1205.14    221.77569   -983.36426   -491.55915    14.954595    14.954595    14.954595            0            0            0 
  170500    293.93602   -1214.9918    217.58158   -997.41024   -1711.2307    15.026082    15.026082    15.026082            0            0            0 
  170600    301.67711   -1221.1288     223.3118   -997.81696    402.34472     14.99059     14.99059     14.99059            0            0            0 
  170700    281.31094   -1202.7351    208.23606   -994.49907    -567.8076     15.03412     15.03412     15.03412            0            0            0 
  170800    305.56503   -1212.2593    226.18977   -986.06956    457.68811    14.782715    14.782715    14.782715            0            0            0 
  170900    279.81901   -1193.1076    207.13168   -985.97591   -18.987506    14.898655    14.898655    14.898655            0            0            0 
  171000    327.61932   -1219.1414    242.51512   -976.62629    1923.0859    14.944516    14.944516    14.944516            0            0            0 
  171100    309.45133   -1189.0479    229.06655   -959.98135   -774.21349    15.207435    15.207435    15.207435            0            0            0 
  171200    317.49296   -1218.9557    235.01924   -983.93646   -1685.6655    14.965325    14.965325    14.965325            0            0            0 
  171300    285.31494   -1211.3571    211.19996   -1000.1572   -391.45064    14.838088    14.838088    14.838088            0            0            0 
  171400    292.57303   -1199.2083    216.57265   -982.63565    268.95953    14.934487    14.934487    14.934487            0            0            0 
  171500    327.88068   -1201.7011    242.70859   -958.99255    281.27797      15.0714      15.0714      15.0714            0            0            0 
  171600    322.42659   -1207.5344    238.67129   -968.86315    -1318.396    15.103973    15.103973    15.103973            0            0            0 
  171700    312.63788   -1206.6995    231.42535   -975.27415    217.05536    15.042347    15.042347    15.042347            0            0            0 
  171800    289.63728   -1209.8862     214.3995   -995.48671   -1500.6348    15.042944    15.042944    15.042944            0            0            0 
  171900    305.08204   -1202.0126    225.83225   -976.18036   -583.65575    15.014327    15.014327    15.014327            0            0            0 
  172000    318.99172   -1161.8822    236.12868   -925.75356    1250.1087    15.044795    15.044795    15.044795            0            0            0 
  172100     321.6906    -1175.301    238.12648   -937.17451   -494.81284    15.019593    15.019593    15.019593            0            0            0 
  172200    316.73082   -1194.1539    234.45508   -959.69879    1045.2077    14.869272    14.869272    14.869272            0            0            0 
  172300    295.24935   -1194.3835    218.55375   -975.82972   -1523.4842    14.992793    14.992793    14.992793            0            0            0 
  172400    324.25814    -1216.465    240.02706   -976.43799    2695.9347    14.756075    14.756075    14.756075            0            0            0 
  172500    300.21157   -1213.2148    222.22696    -990.9878   -500.54639    14.943667    14.943667    14.943667            0            0            0 
  172600    272.82295   -1209.8843    201.95296   -1007.9313   -789.18637    14.803514    14.803514    14.803514            0            0            0 
  172700    281.41316   -1214.2084    208.31173   -1005.8967   -2536.3957    14.793192    14.793192    14.793192            0            0            0 
  172800    303.09506   -1228.9684    224.36142    -1004.607    2190.0514    14.602015    14.602015    14.602015            0            0            0 
  172900    314.41279   -1247.1391     232.7392   -1014.3999   -2031.7945    14.806519    14.806519    14.806519            0            0            0 
  173000    282.85006    -1224.102    209.37537   -1014.7266    3128.2138    14.758617    14.758617    14.758617            0            0            0 
  173100    301.99063   -1222.3249    223.54388   -998.78098   -613.00998    14.954028    14.954028    14.954028            0            0            0 
  173200    309.30555   -1200.8264    228.95864   -971.86776    -564.8765    14.943545    14.943545    14.943545            0            0            0 
  173300    295.81749   -1183.0823    218.97431     -964.108   -1952.1447    15.058912    15.058912    15.058912            0            0            0 
  173400    299.41075    -1186.456    221.63416   -964.82182   -834.85105    15.004426    15.004426    15.004426            0            0            0 
  173500    309.69092   -1203.2496     229.2439   -974.00566    944.27276    14.869351    14.869351    14.869351            0            0            0 
  173600       313.86   -1184.7179       232.33   -952.38786    425.41343    14.896802    14.896802    14.896802            0            0            0 
  173700    341.04163   -1199.6967    252.45078   -947.24592    275.83879    15.103744    15.103744    15.103744            0            0            0 
  173800    312.59591   -1207.1726    231.39427   -975.77829   -90.135511    15.166739    15.166739    15.166739            0            0            0 
  173900    316.74246   -1219.6185     234.4637   -985.15481   -2086.9645    15.203745    15.203745    15.203745            0            0            0 
  174000    298.63459   -1207.7221    221.05962   -986.66253    1589.0544    15.008906    15.008906    15.008906            0            0            0 
  174100    299.40421   -1193.6882    221.62932   -972.05883      -562.99     15.15727     15.15727     15.15727            0            0            0 
  174200    299.44086   -1219.7259    221.65645   -998.06942    1847.1763    14.887607    14.887607    14.887607            0            0            0 
  174300    308.09227   -1207.5023    228.06052   -979.44177   -598.79192    14.823503    14.823503    14.823503            0            0            0 
  174400    307.38628   -1209.4837    227.53792   -981.94576   -789.66432    15.035513    15.035513    15.035513            0            0            0 
  174500    285.64992   -1196.7892    211.44792   -985.34128    198.08732    15.118954    15.118954    15.118954            0            0            0 
  174600    318.34649    -1205.009    235.65105   -969.35793    539.70067    14.892794    14.892794    14.892794            0            0            0 
  174700    304.20091   -1218.6077    225.18001   -993.42771   -1064.8932    15.081587    15.081587    15.081587            0            0            0 
  174800    300.24465   -1218.2453    222.25145   -995.99388    284.44164    15.044673    15.044673    15.044673            0            0            0 
  174900    299.14566   -1215.8857    221.43793   -994.44781    1032.6333    14.976145    14.976145    14.976145            0            0            0 
  175000     297.5843   -1195.3488    220.28216   -975.06659   -701.42972    15.105408    15.105408    15.105408            0            0            0 
  175100    282.96719   -1217.1795    209.46208   -1007.7174    141.47051     14.97082     14.97082     14.97082            0            0            0 
  175200    287.59074   -1179.1558    212.88459   -966.27116   -1080.7378    15.170465    15.170465    15.170465            0            0            0 
  175300     276.5561   -1198.3773    204.71636   -993.66095    161.11758    15.105525    15.105525    15.105525            0            0            0 
  175400    285.73906   -1192.3163    211.51391   -980.80242   -546.43918    14.951339    14.951339    14.951339            0            0            0 
  175500    298.97585   -1178.9528    221.31224   -957.64059   -453.16618    14.941057    14.941057    14.941057            0            0            0 
  175600    304.96968   -1159.6632    225.74907   -933.91414   -36.889123    15.012451    15.012451    15.012451            0            0            0 
  175700    312.96796   -1182.3977    231.66968   -950.72801   -1164.3737    15.139487    15.139487    15.139487            0            0            0 
  175800    291.64354   -1199.5973    215.88461   -983.71272    796.73444     14.92273     14.92273     14.92273            0            0            0 
  175900    316.35377   -1197.1076    234.17597   -962.93158    2531.2674    14.842065    14.842065    14.842065            0            0            0 
  176000    311.95029   -1203.5508    230.91637   -972.63446   -804.24692    14.961916    14.961916    14.961916            0            0            0 
  176100    287.69393   -1210.4581    212.96097   -997.49714    817.76263    14.848575    14.848575    14.848575            0            0            0 
  176200    298.97309   -1195.9841     221.3102   -974.67392   -1564.0645    15.061633    15.061633    15.061633            0            0            0 
  176300    314.90823   -1205.5253    233.10593   -972.41936   -731.57406     15.03157     15.03157     15.03157            0            0            0 
  176400    308.44636   -1230.1247    228.32264    -1001.802   -799.30058    14.952268    14.952268    14.952268            0            0            0 
  176500    323.80257   -1236.8966    239.68983   -997.20676    -1190.992    14.869532    14.869532    14.869532            0            0            0 
  176600    294.13852   -1201.0592    217.73148   -983.32776   -1863.3661    15.003184    15.003184    15.003184            0            0            0 
  176700    295.64514   -1219.3978    218.84673   -1000.5511     1168.564    14.851482    14.851482    14.851482            0            0            0 
  176800    295.05294   -1231.9008    218.40836   -1013.4925    107.94585    14.847512    14.847512    14.847512            0            0            0 
  176900    300.05886   -1244.0735    222.11392   -1021.9596      2728.47    14.770341    14.770341    14.770341            0            0            0 
  177000    302.36229   -1226.8019      223.819   -1002.9829   -1858.6566    15.070408    15.070408    15.070408            0            0            0 
  177100    293.47433   -1232.9686    217.23982   -1015.7288    759.30315    15.060975    15.060975    15.060975            0            0            0 
  177200    278.98193   -1213.4086    206.51205   -1006.8966   -86.289627    15.071326    15.071326    15.071326            0            0            0 
  177300    281.80467   -1224.5355    208.60154    -1015.934    1311.4668    14.788193    14.788193    14.788193            0            0            0 
  177400    267.52705   -1205.0959    198.03275   -1007.0631    197.99917    14.964088    14.964088    14.964088            0            0            0 
  177500    300.05186   -1237.5375    222.10874   -1015.4288    13.018582    14.952106    14.952106    14.952106            0            0            0 
  177600    306.71659   -1237.7782     227.0422    -1010.736   -1328.4685    14.957387    14.957387    14.957387            0            0            0 
  177700    264.89131   -1210.6278    196.08169   -1014.5461    144.08387    14.999878    14.999878    14.999878            0            0            0 
  177800    308.67149   -1192.7025    228.48928    -964.2132    1034.1923    15.057035    15.057035    15.057035            0            0            0 
  177900    287.21748    -1180.899    212.60829    -968.2907   -745.59593    15.133107    15.133107    15.133107            0            0            0 
  178000    323.30676    -1194.904    239.32281   -955.58118   -892.99351    15.172243    15.172243    15.172243            0            0            0 
  178100     303.3545   -1173.3908    224.55346   -948.83738    1810.0548    15.108767    15.108767    15.108767            0            0            0 
  178200    313.70865   -1187.8513    232.21797   -955.63329   -1444.9839     15.21679     15.21679     15.21679            0            0            0 
  178300    308.18336   -1176.7716    228.12795   -948.64365     1003.341    15.132237    15.132237    15.132237            0            0            0 
  178400    262.03705    -1201.044    193.96886   -1007.0751   -231.42815     15.35057     15.35057     15.35057            0            0            0 
  178500    319.56161   -1229.4465    236.55053     -992.896    61.325967    15.274997    15.274997    15.274997            0            0            0 
  178600    288.36435   -1230.0418    213.45724   -1016.5846   -500.45647    15.116156    15.116156    15.116156            0            0            0 
  178700    294.57823   -1203.9139    218.05697   -985.85693   -101.31131    15.203723    15.203723    15.203723            0            0            0 
  178800     293.6526   -1202.8607    217.37179   -985.48888   -44.825511    15.249923    15.249923    15.249923            0            0            0 
  178900    289.30961   -1195.8227    214.15696   -981.66574   -736.33436    15.353338    15.353338    15.353338            0            0            0 
  179000    309.50418   -1204.2612    229.10567   -975.15555   -936.16946    15.348131    15.348131    15.348131            0            0            0 
  179100    309.49184   -1212.3073    229.09653   -983.21078    1144.5206    15.193429    15.193429    15.193429            0            0            0 
  179200    323.83785   -1214.4052    239.71595   -974.68922   -462.34119    15.151911    15.151911    15.151911            0            0            0 
  179300    295.44722   -1203.1194    218.70023    -984.4192    1272.1861    14.928933    14.928933    14.928933            0            0            0 
  179400    308.84321   -1221.1826     228.6164   -992.56621    1771.9532     14.85807     14.85807     14.85807            0            0            0 
  179500    300.84916    -1201.726    222.69892   -979.02704    1208.0799      15.0906      15.0906      15.0906            0            0            0 
  179600    315.10897   -1211.5373    233.25453   -978.28276    2236.1635    15.000494    15.000494    15.000494            0            0            0 
  179700    331.52636   -1201.8274    245.40725   -956.42019   -944.91637    15.059632    15.059632    15.059632            0            0            0 
  179800    298.47317   -1181.6853    220.94014   -960.74519   -387.77593    14.980846    14.980846    14.980846            0            0            0 
  179900    303.83147   -1194.7957    224.90653   -969.88912   -129.36787    14.937058    14.937058    14.937058            0            0            0 
  180000    278.45872   -1193.8211    206.12475   -987.69633   -2560.4492    14.978272    14.978272    14.978272            0            0            0 
  180100    286.60621   -1193.6636     212.1558   -981.50782    726.43135    14.788932    14.788932    14.788932            0            0            0 
  180200    297.03597   -1199.4757    219.87627   -979.59939    -326.5279    14.859829    14.859829    14.859829            0            0            0 
  180300    297.55094   -1212.4913    220.25747   -992.23385    28.643875    15.026801    15.026801    15.026801            0            0            0 
  180400    286.98559   -1201.5795    212.43664   -989.14291   -558.53672     15.07891     15.07891     15.07891            0            0            0 
  180500    306.67785   -1217.9868    227.01352   -990.97326    272.71178    14.918601    14.918601    14.918601            0            0            0 
  180600    324.28427   -1196.6924     240.0464   -956.64596   -2750.6762    15.253127    15.253127    15.253127            0            0            0 
  180700     330.9327   -1190.3108     244.9678     -945.343   -1448.9339    15.174081    15.174081    15.174081            0            0            0 
  180800    291.67844   -1210.6948    215.91044   -994.78436   -1338.5796    15.080757    15.080757    15.080757            0            0            0 
  180900    301.92017   -1208.2411    223.49173   -984.74932    1451.6434    14.871074    14.871074    14.871074            0            0            0 
  181000    294.82676    -1195.321    218.24094   -977.08003   -704.83251    14.962321    14.962321    14.962321            0            0            0 
  181100    286.81431   -1213.3722    212.30985   -1001.0623    461.53985    14.890437    14.890437    14.890437            0            0            0 
  181200    302.65167   -1228.7514    224.03321   -1004.7182    158.36962    14.781003    14.781003    14.781003            0            0            0 
  181300    289.01108   -1211.4173    213.93597   -997.48136    462.47331    14.906195    14.906195    14.906195            0            0            0 
  181400    318.13959   -1209.8355     235.4979   -974.33764     507.6436      14.9975      14.9975      14.9975            0            0            0 
  181500      302.801   -1196.1721    224.14374   -972.02832   -1801.9823    15.166935    15.166935    15.166935            0            0            0 
  181600    280.77604    -1218.732    207.84011   -1010.8918    506.78496    15.055475    15.055475    15.055475            0            0            0 
  181700    324.57681   -1214.8713    240.26295   -974.60833   -223.25517    15.142745    15.142745    15.142745            0            0            0 
  181800    308.71899   -1216.3601    228.52444   -987.83565   -1750.7722    15.235232    15.235232    15.235232            0            0            0 
  181900    315.85155   -1204.4461    233.80421   -970.64192    637.89591    15.199905    15.199905    15.199905            0            0            0 
  182000    297.77049   -1189.0774    220.41999   -968.65743   -1239.2903    15.234712    15.234712    15.234712            0            0            0 
  182100    300.85509   -1180.1975    222.70331   -957.49423   -741.31187    15.051923    15.051923    15.051923            0            0            0 
  182200    325.33909   -1200.2545    240.82722   -959.42731   -996.23617    15.080128    15.080128    15.080128            0            0            0 
  182300     301.0054   -1188.1579    222.81458   -965.34327   -1601.3467      15.2581      15.2581      15.2581            0            0            0 
  182400    318.87047   -1208.6933    236.03892   -972.65439   -1010.2025    15.061558    15.061558    15.061558            0            0            0 
  182500    302.15896   -1197.6169    223.66848   -973.94846    169.72611    14.904694    14.904694    14.904694            0            0            0 
  182600    298.21338   -1219.4583    220.74783   -998.71046   -744.38507    14.871193    14.871193    14.871193            0            0            0 
  182700    288.38659   -1196.7726     213.4737   -983.29891   -37.906264    15.036259    15.036259    15.036259            0            0            0 
  182800    305.54467   -1215.6674     226.1747   -989.49268   -981.63588     15.17185     15.17185     15.17185            0            0            0 
  182900    300.50559   -1195.4296    222.44461   -972.98494   -381.81699    15.084961    15.084961    15.084961            0            0            0 
  183000    293.74851   -1204.2817    217.44278   -986.83894   -1272.5085     15.03125     15.03125     15.03125            0            0            0 
  183100    317.59371   -1224.0156    235.09382   -988.92176    1038.0288     14.99637     14.99637     14.99637            0            0            0 
  183200    326.46005   -1206.1835    241.65699   -964.52651   -213.74732    15.203348    15.203348    15.203348            0            0            0 
  183300    310.92539   -1221.8783     230.1577   -991.72057   -482.36754    15.217109    15.217109    15.217109            0            0            0 
  183400    307.87375   -1202.5324    227.89877   -974.63363    1239.0672    14.890927    14.890927    14.890927            0            0            0 
  183500    296.10905   -1170.4647    219.19013    -951.2746     -1185.76    14.981238    14.981238    14.981238            0            0            0 
  183600    292.14732   -1180.6696    216.25752   -964.41203   -1390.4123    14.987526    14.987526    14.987526            0            0            0 
  183700    307.54251   -1180.5837    227.65357   -952.93013   -53.754684    14.966813    14.966813    14.966813            0            0            0 
  183800     322.6821   -1203.4159    238.86042   -964.55546   -2178.8905    15.212662    15.212662    15.212662            0            0            0 
  183900    289.37781   -1176.1543    214.20744   -961.94682    2317.1882    14.905862    14.905862    14.905862            0            0            0 
  184000     327.6039   -1210.0368    242.50371   -967.53309    -1270.942     14.96242     14.96242     14.96242            0            0            0 
  184100    324.45496    -1215.018    240.17275   -974.84526   -2061.9414     15.00113     15.00113     15.00113            0            0            0 
  184200    331.08599   -1232.6063    245.08127   -987.52505   -890.62381    14.905529    14.905529    14.905529            0            0            0 
  184300    293.64104   -1227.0416    217.36323   -1009.6783    1518.6726    14.856723    14.856723    14.856723            0            0            0 
  184400    275.22675   -1189.4866    203.73233   -985.75425   -294.88475    15.000683    15.000683    15.000683            0            0            0 
  184500    308.15115   -1215.3376    228.10411   -987.23346    316.58251    14.965426    14.965426    14.965426            0            0            0 
  184600    301.81853   -1202.8484    223.41649   -979.43191    1376.4703    15.031849    15.031849    15.031849            0            0            0 
  184700     290.1106   -1217.9261    214.74987   -1003.1762   -1412.2165    15.087409    15.087409    15.087409            0            0            0 
  184800    302.30041    -1211.016    223.77319   -987.24283    1843.2153    14.967273    14.967273    14.967273            0            0            0 
  184900    301.77443   -1211.4981    223.38384   -988.11427    440.12198    15.121779    15.121779    15.121779            0            0            0 
  185000    294.50253   -1219.8125    218.00093   -1001.8115    584.12026    14.971775    14.971775    14.971775            0            0            0 
  185100    286.71495   -1215.8929     212.2363   -1003.6566   -6.5902028    15.010259    15.010259    15.010259            0            0            0 
  185200    302.23835   -1211.4718    223.72726   -987.74458   -1621.3806     15.01603     15.01603     15.01603            0            0            0 
  185300    314.88055   -1207.4869    233.08545   -974.40141    454.50865    14.874892    14.874892    14.874892            0            0            0 
  185400    290.46205   -1189.5645    215.01003   -974.55446   -233.04471    14.941079    14.941079    14.941079            0            0            0 
  185500    283.10985   -1205.1424    209.56768   -995.57468   -1359.5618     14.88955     14.88955     14.88955            0            0            0 
  185600    279.98845   -1190.6587    207.25711   -983.40155   -143.38527    14.762101    14.762101    14.762101            0            0            0 
  185700    267.18647   -1204.5279    197.78064   -1006.7473   -1069.1841    14.923635    14.923635    14.923635            0            0            0 
  185800    292.07445   -1230.4851    216.20358   -1014.2815    466.91495    14.884027    14.884027    14.884027            0            0            0 
  185900      260.007   -1218.0455    192.46615   -1025.5793    -383.0792    14.964068    14.964068    14.964068            0            0            0 
  186000    274.16565   -1208.9262    202.94687   -1005.9794     335.0572    14.970845    14.970845    14.970845            0            0            0 
  186100    284.89202   -1188.0404     210.8869   -977.15347   -2335.6132    15.220066    15.220066    15.220066            0            0            0 
  186200    302.59534   -1211.1171    223.99151    -987.1256    434.80297    15.136801    15.136801    15.136801            0            0            0 
  186300    304.12393    -1193.349    225.12303   -968.22596    402.20724     15.01082     15.01082     15.01082            0            0            0 
  186400    311.30759   -1182.1014    230.44062    -951.6608   -77.522365     15.03803     15.03803     15.03803            0            0            0 
  186500    280.14647    -1212.507    207.37408   -1005.1329    613.07198    15.088109    15.088109    15.088109            0            0            0 
  186600    295.59445   -1232.9247    218.80921   -1014.1155   -288.14501    14.936986    14.936986    14.936986            0            0            0 
  186700     270.7662   -1207.5881    200.43048   -1007.1576   -682.74422    14.989779    14.989779    14.989779            0            0            0 
  186800    308.48871   -1200.7259    228.35399   -972.37195   -331.61683    15.025535    15.025535    15.025535            0            0            0 
  186900    292.95999   -1196.8595    216.85909    -980.0004   -608.73339    15.043366    15.043366    15.043366            0            0            0 
  187000    295.82072   -1205.0418     218.9767    -986.0651   -302.98438    14.870232    14.870232    14.870232            0            0            0 
  187100    314.59673   -1210.3181    232.87535   -977.44275    1380.9246    14.837522    14.837522    14.837522            0            0            0 
  187200    303.82907   -1195.3002    224.90476    -970.3954   -1335.4758    14.950086    14.950086    14.950086            0            0            0 
  187300    297.22577   -1203.9145    220.01677   -983.89774    615.02587     14.85305     14.85305     14.85305            0            0            0 
  187400    284.10771   -1218.3614    210.30633   -1008.0551    477.58242    14.940855    14.940855    14.940855            0            0            0 
  187500    262.97309   -1217.7349    194.66176   -1023.0731    738.76093    14.875833    14.875833    14.875833            0            0            0 
  187600    297.30916   -1192.2683     220.0785   -972.18975    905.88074    14.956275    14.956275    14.956275            0            0            0 
  187700    295.82645   -1222.4032    218.98094   -1003.4222     284.3659    14.999974    14.999974    14.999974            0            0            0 
  187800    297.21353   -1210.1568     220.0077   -990.14908   -771.19071    15.087775    15.087775    15.087775            0            0            0 
  187900    290.73064   -1198.7946    215.20885   -983.58571    -2823.462    15.318103    15.318103    15.318103            0            0            0 
  188000    263.56923   -1183.9926    195.10304   -988.88959     3340.335    15.020015    15.020015    15.020015            0            0            0 
  188100    296.19668   -1232.6349      219.255   -1013.3799   -1935.2552    15.126081    15.126081    15.126081            0            0            0 
  188200    272.34937   -1226.5727     201.6024   -1024.9703     2754.955    15.014923    15.014923    15.014923            0            0            0 
  188300    277.75762   -1224.4391    205.60577   -1018.8333    1520.7089    15.100045    15.100045    15.100045            0            0            0 
  188400    268.75093   -1182.3418    198.93871   -983.40311    338.19912    15.143559    15.143559    15.143559            0            0            0 
  188500    270.22096   -1219.6287    200.02688   -1019.6019    1312.2144     14.97751     14.97751     14.97751            0            0            0 
  188600    298.26115   -1215.0939    220.78319   -994.31066   -1965.4196    15.117603    15.117603    15.117603            0            0            0 
  188700    296.76126   -1241.5897    219.67292   -1021.9168    999.10701    14.953742    14.953742    14.953742            0            0            0 
  188800    284.84796   -1232.1286    210.85429   -1021.2743     509.7751    14.785224    14.785224    14.785224            0            0            0 
  188900    293.75878   -1235.5552    217.45039   -1018.1049   -564.71555     14.82892     14.82892     14.82892            0            0            0 
  189000    284.97906   -1221.6443    210.95133    -1010.693   -340.84444    14.905612    14.905612    14.905612            0            0            0 
  189100    295.58741   -1225.0836    218.80399   -1006.2797   -898.27776    15.099036    15.099036    15.099036            0            0            0 
  189200    304.03425   -1201.8524    225.05664   -976.79571   -575.36631    15.276166    15.276166    15.276166            0            0            0 
  189300    302.25828   -1212.2175    223.74201   -988.47548    324.89092    15.060126    15.060126    15.060126            0            0            0 
  189400    298.60386   -1224.6958    221.03688   -1003.6589    -807.5727    14.988005    14.988005    14.988005            0            0            0 
  189500    290.20573   -1205.7601    214.82029   -990.93979    126.82396    15.063211    15.063211    15.063211            0            0            0 
  189600    326.85117   -1198.1063    241.94651   -956.15983     2174.254    14.781427    14.781427    14.781427            0            0            0 
  189700    300.95725   -1178.4861    222.77894   -955.70719   -815.07685    14.870965    14.870965    14.870965            0            0            0 
  189800    305.00004   -1196.4479    225.77155   -970.67635   -729.08993     15.04564     15.04564     15.04564            0            0            0 
  189900    312.82508   -1206.4985    231.56392   -974.93457    1054.2978    14.996501    14.996501    14.996501            0            0            0 
  190000    320.32997   -1189.0708    237.11929   -951.95152   -800.95475    15.179757    15.179757    15.179757            0            0            0 
  190100    308.65289   -1190.4878    228.47552   -962.01231   -335.73564    15.223632    15.223632    15.223632            0            0            0 
  190200    298.56192    -1167.112    221.00583   -946.10619   -589.31725    15.392236    15.392236    15.392236            0            0            0 
  190300    325.64165   -1181.5532    241.05118   -940.50197   -736.98021    15.337037    15.337037    15.337037            0            0            0 
  190400     310.8244   -1188.5663    230.08294   -958.48336    896.17017    15.248512    15.248512    15.248512            0            0            0 
  190500    318.82498    -1187.294    236.00525   -951.28873    1745.9627    15.210287    15.210287    15.210287            0            0            0 
  190600    307.00624   -1191.1593    227.25661   -963.90272    1051.3578    15.014534    15.014534    15.014534            0            0            0 
  190700    284.65489   -1196.7219    210.71137    -986.0105   -488.68849      15.1545      15.1545      15.1545            0            0            0 
  190800    285.24633   -1181.3389    211.14917   -970.18972   -232.34192     15.32143     15.32143     15.32143            0            0            0 
  190900    318.87105    -1195.464    236.03935   -959.42461   -127.52619    15.363208    15.363208    15.363208            0            0            0 
  191000    320.57163   -1200.7408    237.29818   -963.44267    230.10718    15.220273    15.220273    15.220273            0            0            0 
  191100    303.80095   -1210.0632    224.88394   -985.17926    94.766168    14.980828    14.980828    14.980828            0            0            0 
  191200      291.912   -1193.9821    216.08333   -977.89874   -478.52146    14.962384    14.962384    14.962384            0            0            0 
  191300    310.48494   -1223.8828    229.83167   -994.05109    453.48362    14.882047    14.882047    14.882047            0            0            0 
  191400    286.65826   -1214.3337    212.19433   -1002.1394    203.18317     15.02787     15.02787     15.02787            0            0            0 
  191500    297.49593   -1195.4043    220.21675   -975.18756    1366.4155    15.006142    15.006142    15.006142            0            0            0 
  191600    286.36458   -1184.4716    211.97694   -972.49463    2128.0745    14.972083    14.972083    14.972083            0            0            0 
  191700    301.88977   -1217.0368    223.46923   -993.56753   -57.614119    14.992073    14.992073    14.992073            0            0            0 
  191800    298.11834   -1185.9188    220.67748   -965.24128    779.38475    15.057526    15.057526    15.057526            0            0            0 
  191900    266.40178   -1180.9002    197.19979   -983.70045   -4.6569353     15.13597     15.13597     15.13597            0            0            0 
  192000    292.15836   -1193.3745    216.26569   -977.10883   -410.32018    15.160364    15.160364    15.160364            0            0            0 
  192100    295.58115   -1209.5233    218.79936   -990.72397   -92.268518    14.976798    14.976798    14.976798            0            0            0 
  192200    312.48729    -1205.398    231.31387   -974.08413   -537.97203    15.010364    15.010364    15.010364            0            0            0 
  192300    300.86251   -1191.1097    222.70881   -968.40085   -485.69361    15.085994    15.085994    15.085994            0            0            0 
  192400    306.43375   -1174.1055    226.83283   -947.27263   -335.35447     15.28893     15.28893     15.28893            0            0            0 
  192500    303.45189   -1182.1127    224.62556   -957.48716     1462.606    15.348028    15.348028    15.348028            0            0            0 
  192600    311.82861   -1199.6047    230.82629   -968.77837   -972.51485    15.297044    15.297044    15.297044            0            0            0 
  192700    247.04466   -1192.8903    182.87098   -1010.0193    352.54702    15.187329    15.187329    15.187329            0            0            0 
  192800     295.9615    -1217.183    219.08091   -998.10209   -289.52174    15.196088    15.196088    15.196088            0            0            0 
  192900     312.7004   -1204.3142    231.47162   -972.84253    287.09382     15.11745     15.11745     15.11745            0            0            0 
  193000    288.46644   -1202.7755    213.53281   -989.24267   -347.49059    15.090978    15.090978    15.090978            0            0            0 
  193100    296.64003    -1214.025    219.58318   -994.44181   -57.839297    14.999765    14.999765    14.999765            0            0            0 
  193200    285.87242   -1232.2573    211.61263   -1020.6446   -1629.7849    15.110303    15.110303    15.110303            0            0            0 
  193300    281.63904   -1227.4337    208.47893   -1018.9548    241.73795    15.086637    15.086637    15.086637            0            0            0 
  193400    281.22631   -1224.5872    208.17342   -1016.4137   -686.00527    15.190674    15.190674    15.190674            0            0            0 
  193500     274.2289   -1215.0056    202.99369   -1012.0119   -91.114336    15.359956    15.359956    15.359956            0            0            0 
  193600    298.75894    -1219.148    221.15167   -997.99636    58.693516     15.27052     15.27052     15.27052            0            0            0 
  193700    268.22057   -1200.8868    198.54612   -1002.3406   -232.40842    15.185396    15.185396    15.185396            0            0            0 
  193800      282.702   -1208.2008    209.26577   -998.93506    460.47089     14.96602     14.96602     14.96602            0            0            0 
  193900    290.49457   -1199.8566     215.0341   -984.82254   -1025.9455    14.997809    14.997809    14.997809            0            0            0 
  194000    299.35092   -1224.0798    221.58988   -1002.4899    423.14687    15.050691    15.050691    15.050691            0            0            0 
  194100    290.82374   -1226.8135    215.27776   -1011.5357   -211.90084    14.898748    14.898748    14.898748            0            0            0 
  194200    291.78917    -1232.534    215.99241   -1016.5416    223.71155    14.800901    14.800901    14.800901            0            0            0 
  194300    287.56007   -1222.6047    212.86188   -1009.7428    121.41118    15.023906    15.023906    15.023906            0            0            0 
  194400    258.27178   -1196.6118    191.18168   -1005.4301    1810.7846    14.936245    14.936245    14.936245            0            0            0 
  194500    291.92071   -1208.4403    216.08978   -992.35052    1128.5117    14.965553    14.965553    14.965553            0            0            0 
  194600    311.16315    -1193.609    230.33369   -963.27534   -1624.6029    15.204811    15.204811    15.204811            0            0            0 
  194700    307.16043    -1187.775    227.37075   -960.40427   -1916.1182    15.235757    15.235757    15.235757            0            0            0 
  194800    303.66196   -1168.4732    224.78106   -943.69216    557.17008    15.219594    15.219594    15.219594            0            0            0 
  194900    315.80584   -1182.9579    233.77037    -949.1875    43.480968    15.343918    15.343918    15.343918            0            0            0 
  195000    305.87763   -1194.2616    226.42118   -967.84045   -839.24557    15.274473    15.274473    15.274473            0            0            0 
  195100     317.6716   -1195.5383    235.15148   -960.38679    -1525.003    15.165197    15.165197    15.165197            0            0            0 
  195200    325.14764   -1218.8831     240.6855   -978.19758   -1290.5443    14.924549    14.924549    14.924549            0            0            0 
  195300    318.74775   -1198.9596    235.94808   -963.01148   -1025.0183    15.084065    15.084065    15.084065            0            0            0 
  195400    293.62622   -1187.3674    217.35226   -970.01517    1431.8503    15.110094    15.110094    15.110094            0            0            0 
  195500    295.35414   -1180.2368    218.63132    -961.6055   -289.66739    15.256895    15.256895    15.256895            0            0            0 
  195600    309.81874   -1164.2918    229.33852   -934.95333    783.63502     15.32834     15.32834     15.32834            0            0            0 
  195700    279.99439   -1165.7528    207.26151   -958.49126   -945.22508    15.289644    15.289644    15.289644            0            0            0 
  195800    311.51367   -1191.0046    230.59317    -960.4114    319.84478    15.014664    15.014664    15.014664            0            0            0 
  195900     288.5278   -1198.7288    213.57823   -985.15058    187.32239    14.874618    14.874618    14.874618            0            0            0 
  196000    285.03429   -1210.2456    210.99221   -999.25343   -148.38087     14.87661     14.87661     14.87661            0            0            0 
  196100    296.93326   -1225.6019    219.80024   -1005.8017   -1930.1571    14.949984    14.949984    14.949984            0            0            0 
  196200    268.81572   -1239.1613    198.98667   -1040.1747    -950.1388    14.848496    14.848496    14.848496            0            0            0 
  196300     281.0647   -1217.1439    208.05379   -1009.0901    7.2478723    14.909366    14.909366    14.909366            0            0            0 
  196400    292.85896   -1239.9158     216.7843   -1023.1315    2165.9699    14.844541    14.844541    14.844541            0            0            0 
  196500    300.10682   -1240.5652    222.14942   -1018.4158   -845.99085    15.044406    15.044406    15.044406            0            0            0 
  196600    281.59856   -1234.2443    208.44897   -1025.7954    446.27842     14.88559     14.88559     14.88559            0            0            0 
  196700    293.61794    -1224.201    217.34613   -1006.8548   -1142.9245    15.032972    15.032972    15.032972            0            0            0 
  196800     313.8171   -1241.9213    232.29824   -1009.6231    1266.9518     14.81281     14.81281     14.81281            0            0            0 
  196900    288.18447   -1205.5921    213.32408   -992.26806     538.8653    14.867076    14.867076    14.867076            0            0            0 
  197000    297.79635   -1207.9107    220.43913   -987.47154   -1859.1099    15.070333    15.070333    15.070333            0            0            0 
  197100    293.96797   -1197.6538    217.60523   -980.04858    591.59491    15.009799    15.009799    15.009799            0            0            0 
  197200     287.5273    -1202.627    212.83763   -989.78934    84.313327    14.849383    14.849383    14.849383            0            0            0 
  197300    289.59248   -1205.9785    214.36634   -991.61219   -574.14631    15.041239    15.041239    15.041239            0            0            0 
  197400    311.84435   -1229.8759    230.83794   -999.03792   -87.038841    15.047061    15.047061    15.047061            0            0            0 
  197500    305.56198   -1215.6331    226.18752   -989.44561    -1279.377    15.179452    15.179452    15.179452            0            0            0 
  197600     289.3142   -1219.1818    214.16035   -1005.0214   -539.09566    15.085217    15.085217    15.085217            0            0            0 
  197700    278.98877   -1205.4987    206.51711   -998.98164   -440.50803    15.062199    15.062199    15.062199            0            0            0 
  197800    297.03928   -1212.3075    219.87872   -992.42878    531.21327    15.126978    15.126978    15.126978            0            0            0 
  197900    306.13324   -1225.4795    226.61039   -998.86913    889.44469    15.116581    15.116581    15.116581            0            0            0 
  198000    296.89149   -1236.8716    219.76933   -1017.1023   -1992.2717    15.215466    15.215466    15.215466            0            0            0 
  198100    288.68906   -1243.2215     213.6976   -1029.5239    180.41105    15.021698    15.021698    15.021698            0            0            0 
  198200    285.41071   -1205.0543    211.27086   -993.78349   -326.32173    15.124814    15.124814    15.124814            0            0            0 
  198300    300.38253   -1193.8786    222.35351   -971.52513   -976.38838    15.161645    15.161645    15.161645            0            0            0 
  198400    336.23457   -1207.8102    248.89242   -958.91775    563.48204    14.919677    14.919677    14.919677            0            0            0 
  198500    318.95015   -1221.2648     236.0979   -985.16692    814.65593    14.926003    14.926003    14.926003            0            0            0 
  198600    298.55732   -1194.8237    221.00242   -973.82125   -583.85068    15.158052    15.158052    15.158052            0            0            0 
  198700    287.28104   -1213.5337    212.65534   -1000.8784   -681.64445    15.115526    15.115526    15.115526            0            0            0 
  198800    288.94528    -1208.277    213.88727   -994.38977   -135.61743     15.05255     15.05255     15.05255            0            0            0 
  198900    303.34665   -1224.3803    224.54766   -999.83259    26.255612    15.005868    15.005868    15.005868            0            0            0 
  199000    317.45167   -1219.0936    234.98867   -984.10489   -752.69375    15.004618    15.004618    15.004618            0            0            0 
  199100    302.98796   -1212.5935    224.28214   -988.31138   -643.16831    14.964665    14.964665    14.964665            0            0            0 
  199200    301.52287   -1204.6002    223.19763   -981.40261    749.36288    14.960603    14.960603    14.960603            0            0            0 
  199300    295.58778    -1210.112    218.80427   -991.30773    1016.0895    14.915526    14.915526    14.915526            0            0            0 
  199400    312.84514   -1218.8364    231.57877   -987.25763   -219.65297    14.965765    14.965765    14.965765            0            0            0 
  199500    301.93684   -1200.6271    223.50406   -977.12308    2173.6328    14.869484    14.869484    14.869484            0            0            0 
  199600    277.03969   -1209.3096    205.07434   -1004.2352    322.15479    14.882738    14.882738    14.882738            0            0            0 
  199700    275.63871   -1192.5942    204.03728   -988.55694    1115.9934    14.907168    14.907168    14.907168            0            0            0 
  199800    294.37081   -1182.5881    217.90343   -964.68466    1530.8052    15.036593    15.036593    15.036593            0            0            0 
  199900    331.27582    -1202.973    245.22179    -957.7512    128.73711    15.024546    15.024546    15.024546            0            0            0 
SHAKE stats (type/ave/delta) on step 200000
  1 0.95698 0.000132949 636
  200000    323.95803   -1199.2347    239.80491   -959.42983    789.00285    14.966654    14.966654    14.966654            0            0            0 
  200100    303.05482   -1183.9631    224.33163   -959.63149    849.05925    14.885917    14.885917    14.885917            0            0            0 
  200200    307.66085   -1188.4763    227.74118   -960.73511   -774.68656     15.19167     15.19167     15.19167            0            0            0 
  200300    301.60157    -1160.316    223.25588   -937.06007   -305.97953    15.118542    15.118542    15.118542            0            0            0 
  200400    319.88881   -1216.4865    236.79273   -979.69375    2397.8392    14.781812    14.781812    14.781812            0            0            0 
  200500    280.81781   -1177.7011    207.87103   -969.83002   -1054.1292    15.067391    15.067391    15.067391            0            0            0 
  200600    308.35174   -1194.0143    228.25259   -965.76168    1351.8943    15.058494    15.058494    15.058494            0            0            0 
  200700     294.6491    -1189.242    218.10943    -971.1326   -1344.4622    15.333743    15.333743    15.333743            0            0            0 
  200800     295.6923   -1184.8452    218.88164   -965.96359    653.17795    15.213738    15.213738    15.213738            0            0            0 
  200900    283.46017   -1192.2099      209.827   -982.38293   -2017.7116    15.284039    15.284039    15.284039            0            0            0 
  201000     305.0285   -1185.4898    225.79262   -959.69715   -201.48778    15.083593    15.083593    15.083593            0            0            0 
  201100    320.24342   -1193.8064    237.05523   -956.75122    183.39635    15.114017    15.114017    15.114017            0            0            0 
  201200    305.73678   -1193.2487    226.31691    -966.9318   -1021.0622    15.161941    15.161941    15.161941            0            0            0 
  201300    310.18554   -1192.2498    229.61004   -962.63976   -562.54165    15.095154    15.095154    15.095154            0            0            0 
  201400    321.17302   -1191.5975    237.74335   -953.85413    1760.1187    14.916725    14.916725    14.916725            0            0            0 
  201500    294.57735   -1195.9733    218.05632     -977.917     2733.731    14.923295    14.923295    14.923295            0            0            0 
  201600    288.31303   -1212.3364    213.41925   -998.91715    1317.6563    14.999351    14.999351    14.999351            0            0            0 
  201700    293.59932    -1215.106    217.33235   -997.77361   -1670.8697    14.947686    14.947686    14.947686            0            0            0 
  201800    314.04029   -1243.1838    232.46345   -1010.7203   -1007.0253    14.901343    14.901343    14.901343            0            0            0 
  201900    291.24431   -1199.3157    215.58909    -983.7266    1425.6765    14.955506    14.955506    14.955506            0            0            0 
  202000    304.82272   -1187.9615    225.64029   -962.32117   -1435.9205    15.152985    15.152985    15.152985            0            0            0 
  202100    322.29408   -1206.0244     238.5732   -967.45124   -118.79635    15.140909    15.140909    15.140909            0            0            0 
  202200    304.04595   -1203.3639     225.0653   -978.29862    970.71894    15.014967    15.014967    15.014967            0            0            0 
  202300    336.28417   -1221.5404    248.92915    -972.6113    1419.6967    14.902164    14.902164    14.902164            0            0            0 
  202400    281.84358   -1204.7876    208.63034   -996.15729   -663.61981     15.01615     15.01615     15.01615            0            0            0 
  202500    302.91039   -1188.5392    224.22472   -964.31445   -610.85473    14.996768    14.996768    14.996768            0            0            0 
  202600    310.10039   -1220.7673    229.54701   -991.22025   -17.938417    14.941742    14.941742    14.941742            0            0            0 
  202700    315.11987   -1217.3241     233.2626   -984.06151    395.03012    14.896708    14.896708    14.896708            0            0            0 
  202800    280.61801   -1222.7814    207.72313   -1015.0583   -877.11246    14.999341    14.999341    14.999341            0            0            0 
  202900    295.98869   -1220.2704    219.10104   -1001.1693   -696.73003    15.052247    15.052247    15.052247            0            0            0 
  203000    285.95329   -1234.8438    211.67249   -1023.1713    352.53452    14.886838    14.886838    14.886838            0            0            0 
  203100    285.57816   -1234.3372     211.3948   -1022.9424   -1806.1678    14.838716    14.838716    14.838716            0            0            0 
  203200    286.58045   -1251.4796    212.13673   -1039.3428    2113.3179    14.585035    14.585035    14.585035            0            0            0 
  203300    309.61539    -1234.096    229.18799    -1004.908   -1559.6281    14.785615    14.785615    14.785615            0            0            0 
  203400    316.26372   -1211.1672    234.10932   -977.05785   -2440.0373    14.733611    14.733611    14.733611            0            0            0 
  203500    279.89327   -1223.8567    207.18665   -1016.6701   -20.204543    14.700202    14.700202    14.700202            0            0            0 
  203600    326.73801   -1229.2328    241.86274   -987.37002    1241.4582    14.745441    14.745441    14.745441            0            0            0 
  203700    296.43267    -1228.327    219.42969   -1008.8974    736.10654    14.866383    14.866383    14.866383            0            0            0 
  203800    283.72839    -1236.607    210.02554   -1026.5815    207.87686    14.912689    14.912689    14.912689            0            0            0 
  203900    304.61036   -1250.3266     225.4831   -1024.8436   -354.30657    15.015417    15.015417    15.015417            0            0            0 
  204000    292.61822   -1240.8583     216.6061   -1024.2522     1281.683    14.859544    14.859544    14.859544            0            0            0 
  204100    275.69796   -1226.7152    204.08114   -1022.6341    69.901162    14.758448    14.758448    14.758448            0            0            0 
  204200    299.95445   -1216.8644    222.03663   -994.82773   -1567.6179     14.76705     14.76705     14.76705            0            0            0 
  204300    284.48669   -1236.5592    210.58686   -1025.9724   -874.91202    14.614445    14.614445    14.614445            0            0            0 
  204400    307.98224    -1226.281    227.97908   -998.30189   -1272.9016    14.796259    14.796259    14.796259            0            0            0 
  204500    304.53305   -1183.8159    225.42587   -958.39008    1166.4817      14.8792      14.8792      14.8792            0            0            0 
  204600    313.13369   -1229.1915    231.79236    -997.3991   -1246.4974    15.031219    15.031219    15.031219            0            0            0 
  204700    330.26983   -1220.6371    244.47712   -976.16002    1082.2101     14.95435     14.95435     14.95435            0            0            0 
  204800     305.7248   -1228.6698    226.30805   -1002.3618   -1125.7305    14.883569    14.883569    14.883569            0            0            0 
  204900    291.25377   -1248.8335    215.59609   -1033.2374    37.605782    14.751397    14.751397    14.751397            0            0            0 
  205000    278.92585   -1230.3935    206.47054   -1023.9229    -654.0571    14.860042    14.860042    14.860042            0            0            0 
  205100    299.45224   -1227.9063    221.66488   -1006.2414    1680.9394    14.780835    14.780835    14.780835            0            0            0 
  205200    300.44468   -1240.6644    222.39952   -1018.2648   -1267.1912    14.963397    14.963397    14.963397            0            0            0 
  205300    280.90369   -1224.0315     207.9346   -1016.0969   -798.37493    14.921715    14.921715    14.921715            0            0            0 
  205400    275.68123   -1228.1274    204.06876   -1024.0587   -543.96177    14.891843    14.891843    14.891843            0            0            0 
  205500    300.78425   -1210.0905    222.65088   -987.43964    2557.6753    14.918351    14.918351    14.918351            0            0            0 
  205600    315.36358   -1238.6752      233.443   -1005.2322   -270.89588    14.957172    14.957172    14.957172            0            0            0 
  205700     289.7242   -1226.5784    214.46385   -1012.1145   -78.126142    14.889985    14.889985    14.889985            0            0            0 
  205800    280.72852   -1224.3209    207.80493    -1016.516   -504.01849    14.941294    14.941294    14.941294            0            0            0 
  205900    307.77495   -1209.9406    227.82564   -982.11495   -217.38479    14.829298    14.829298    14.829298            0            0            0 
  206000    285.00934   -1224.6906    210.97375   -1013.7169    999.25638    14.683355    14.683355    14.683355            0            0            0 
  206100    319.13419   -1228.2603    236.23414    -992.0262   -454.62171    14.829907    14.829907    14.829907            0            0            0 
  206200    302.40534   -1189.9482    223.85087   -966.09731    444.92879    14.959564    14.959564    14.959564            0            0            0 
  206300    288.21651   -1202.8927     213.3478   -989.54488   -317.59751    14.979383    14.979383    14.979383            0            0            0 
  206400    301.20277   -1203.1564    222.96068   -980.19571   -355.68973    14.835303    14.835303    14.835303            0            0            0 
  206500     303.2436   -1199.1618    224.47138   -974.69045   -413.08354    14.932309    14.932309    14.932309            0            0            0 
  206600    314.53438   -1184.6496     232.8292   -951.82036   -977.41227    14.910789    14.910789    14.910789            0            0            0 
  206700    311.24653   -1213.8961    230.39542   -983.50064   -845.80839     14.85303     14.85303     14.85303            0            0            0 
  206800     302.1555   -1213.4737    223.66593    -989.8078    1225.8217    14.746576    14.746576    14.746576            0            0            0 
  206900    300.93146   -1201.4295    222.75985   -978.66968    1696.9679    14.787862    14.787862    14.787862            0            0            0 
  207000    310.98228   -1214.8163    230.19981   -984.61651   -643.73874    14.940234    14.940234    14.940234            0            0            0 
  207100    305.88021   -1219.1619    226.42308   -992.73879    1290.7355    14.828559    14.828559    14.828559            0            0            0 
  207200    310.96562   -1222.7975    230.18748   -992.61005   -1238.5133    15.043111    15.043111    15.043111            0            0            0 
  207300    282.41141    -1179.188    209.05067   -970.13738    1049.0288    15.015995    15.015995    15.015995            0            0            0 
  207400    299.48737   -1221.3614    221.69088   -999.67055   -1424.1073    15.001078    15.001078    15.001078            0            0            0 
  207500    288.06063   -1210.8564    213.23241   -997.62394   -826.86143    14.943224    14.943224    14.943224            0            0            0 
  207600    303.42362   -1209.7329    224.60463   -985.12832   -1321.4506    14.931279    14.931279    14.931279            0            0            0 
  207700    293.00158   -1227.6227    216.88988   -1010.7328    464.66477    14.896872    14.896872    14.896872            0            0            0 
  207800    309.05026   -1215.5454    228.76967   -986.77577   -948.72492    14.950739    14.950739    14.950739            0            0            0 
  207900    293.99166    -1188.491    217.62277   -970.86824    1532.4569    14.867173    14.867173    14.867173            0            0            0 
  208000    307.07919   -1182.7336    227.31061   -955.42296    491.93929    14.935315    14.935315    14.935315            0            0            0 
  208100    292.68075   -1197.5448    216.65239    -980.8924   -1995.4839    15.084154    15.084154    15.084154            0            0            0 
  208200     318.7056   -1213.5732    235.91688   -977.65631   -2561.2701     15.25448     15.25448     15.25448            0            0            0 
  208300    290.77656   -1208.7406    215.24284   -993.49778    1497.4836    15.090505    15.090505    15.090505            0            0            0 
  208400    310.39338   -1212.4228    229.76389   -982.65895   -779.10874    14.968559    14.968559    14.968559            0            0            0 
  208500    303.36151   -1217.8153    224.55866   -993.25668   -822.90944    14.985951    14.985951    14.985951            0            0            0 
  208600    295.33109   -1225.3072    218.61426   -1006.6929    1402.3335    14.933164    14.933164    14.933164            0            0            0 
  208700     288.3997     -1219.67    213.48341   -1006.1866   -1027.5962    15.035762    15.035762    15.035762            0            0            0 
  208800    317.16023    -1209.239    234.77294   -974.46609   -2680.1645    15.142529    15.142529    15.142529            0            0            0 
  208900    317.85871   -1221.0778    235.28998   -985.78786   -85.967357     15.07722     15.07722     15.07722            0            0            0 
  209000    285.23032   -1204.8931    211.13732   -993.75578   -811.16032    15.122479    15.122479    15.122479            0            0            0 
  209100    301.19181   -1216.9098    222.95257   -993.95722    373.97593    15.038852    15.038852    15.038852            0            0            0 
  209200    319.30491   -1203.1247    236.36051   -966.76415    366.22789    14.929651    14.929651    14.929651            0            0            0 
  209300    302.00677   -1202.3727    223.55583   -978.81689   -630.18544    15.011517    15.011517    15.011517            0            0            0 
  209400    281.64767   -1205.1664    208.48532    -996.6811   -2426.5448    15.075854    15.075854    15.075854            0            0            0 
  209500     301.6851   -1228.3137    223.31772   -1004.9959    1725.6965    14.786574    14.786574    14.786574            0            0            0 
  209600    303.53977   -1193.7818    224.69061   -969.09116   -303.74475    14.990566    14.990566    14.990566            0            0            0 
  209700    291.24783   -1177.1654    215.59169   -961.57369    682.63251    15.149355    15.149355    15.149355            0            0            0 
  209800    276.26109   -1159.9845    204.49799   -955.48652    1005.9622    15.206332    15.206332    15.206332            0            0            0 
  209900    295.66753   -1182.5848    218.86331   -963.72145     -1459.35    15.300063    15.300063    15.300063            0            0            0 
  210000    306.86614   -1208.0622     227.1529   -980.90932    654.43983    15.261563    15.261563    15.261563            0            0            0 
  210100    319.03629   -1226.5908    236.16166   -990.42909    1330.9905    15.026879    15.026879    15.026879            0            0            0 
  210200    315.56324   -1199.2763     233.5908   -965.68551    4.3010658    15.027384    15.027384    15.027384            0            0            0 
  210300    287.39023   -1199.9093    212.73616   -987.17317   -34.926225     14.98091     14.98091     14.98091            0            0            0 
  210400    295.11082   -1200.3246    218.45121   -981.87343    1207.9413    14.759396    14.759396    14.759396            0            0            0 
  210500    302.66061   -1195.4584    224.03982   -971.41853    634.60666    14.790961    14.790961    14.790961            0            0            0 
  210600    311.14554   -1230.6481    230.32066   -1000.3274   -594.04686    14.919885    14.919885    14.919885            0            0            0 
  210700    307.11269   -1197.3492    227.33541   -970.01378   -804.74604    14.942753    14.942753    14.942753            0            0            0 
  210800    308.24995   -1193.7847    228.17724   -965.60748    1369.4857    14.800252    14.800252    14.800252            0            0            0 
  210900    301.28639    -1229.535    223.02258   -1006.5124   -413.96399    14.895199    14.895199    14.895199            0            0            0 
  211000    323.52516   -1225.6473    239.48449    -986.1628    -1978.587    15.007564    15.007564    15.007564            0            0            0 
  211100    310.05789   -1234.8403    229.51555   -1005.3247   -559.99781    14.857044    14.857044    14.857044            0            0            0 
  211200    290.47145     -1227.49    215.01698    -1012.473   -1283.9083    14.845381    14.845381    14.845381            0            0            0 
  211300    338.79709   -1226.7759    250.78929   -975.98662    771.17693    14.844704    14.844704    14.844704            0            0            0 
  211400    345.76543   -1215.7424     255.9475   -959.79486    -1020.538    14.992194    14.992194    14.992194            0            0            0 
  211500    306.57699   -1199.0044    226.93887    -972.0655   -967.18216    15.202315    15.202315    15.202315            0            0            0 
  211600    318.84894   -1201.4339    236.02299   -965.41092    608.61813    15.140955    15.140955    15.140955            0            0            0 
  211700    311.95105    -1179.898    230.91693   -948.98107   -70.460455    15.220252    15.220252    15.220252            0            0            0 
  211800    321.20488   -1170.7178    237.76693    -932.9509    649.94265      15.1132      15.1132      15.1132            0            0            0 
  211900    290.62113   -1170.2249    215.12779   -955.09712    138.75937    15.146041    15.146041    15.146041            0            0            0 
  212000    299.06307   -1204.8025     221.3768   -983.42573   -1400.8101    15.082719    15.082719    15.082719            0            0            0 
  212100    276.54091   -1206.8856    204.70512   -1002.1805    881.58139    14.985289    14.985289    14.985289            0            0            0 
  212200    281.18277   -1204.7595    208.14119   -996.61835    339.78248    15.162646    15.162646    15.162646            0            0            0 
  212300    283.18428   -1185.4598    209.62277     -975.837    109.03491    15.044807    15.044807    15.044807            0            0            0 
  212400     299.3034   -1220.3095     221.5547   -998.75482    604.87648    15.120795    15.120795    15.120795            0            0            0 
  212500    301.16969   -1208.8095    222.93619   -985.87328   -103.61348    15.138896    15.138896    15.138896            0            0            0 
  212600    305.18435   -1213.0272    225.90799   -987.11917   -2668.4685    15.024001    15.024001    15.024001            0            0            0 
  212700    314.20357   -1218.1497    232.58432   -985.56538    547.85378    14.840534    14.840534    14.840534            0            0            0 
  212800    290.35057   -1199.7847    214.92751   -984.85717    974.23088    14.893634    14.893634    14.893634            0            0            0 
  212900    294.95048   -1205.5561    218.33252   -987.22362    1086.3289    14.872255    14.872255    14.872255            0            0            0 
  213000    283.17028   -1176.1391    209.61241   -966.52665     -35.3392    15.098587    15.098587    15.098587            0            0            0 
  213100    303.41634   -1189.7929    224.59924   -965.19364   -372.24374    15.148423    15.148423    15.148423            0            0            0 
  213200    319.23737   -1197.4077    236.31052   -961.09714   -2112.4944    15.160049    15.160049    15.160049            0            0            0 
  213300    294.23038   -1182.6147    217.79948   -964.81518    372.92696     15.12179     15.12179     15.12179            0            0            0 
  213400    316.18108   -1195.6482    234.04814   -961.60005   -242.31903    15.061129    15.061129    15.061129            0            0            0 
  213500    290.27556   -1196.8721    214.87198   -982.00016   -11.643766    15.036121    15.036121    15.036121            0            0            0 
  213600    278.19492    -1189.442    205.92948   -983.51256    648.99182    14.996066    14.996066    14.996066            0            0            0 
  213700    294.24338   -1208.4439     217.8091   -990.63476   -998.26272    15.040999    15.040999    15.040999            0            0            0 
  213800    300.67215   -1217.7885     222.5679    -995.2206   -609.74628    15.172136    15.172136    15.172136            0            0            0 
  213900    298.81547   -1185.6898    221.19352   -964.49633   -1306.4426    15.302081    15.302081    15.302081            0            0            0 
  214000    346.23393   -1203.3146     256.2943   -947.02026    1860.6053    15.025456    15.025456    15.025456            0            0            0 
  214100    292.73676   -1173.3944    216.69385   -956.70055   -619.53265    15.172606    15.172606    15.172606            0            0            0 
  214200    279.27182   -1189.2232    206.72663   -982.49653   -1587.1446    15.161698    15.161698    15.161698            0            0            0 
  214300    294.30821   -1188.8905    217.85709   -971.03339   -124.71635    14.884741    14.884741    14.884741            0            0            0 
  214400    329.76452   -1186.5827    244.10308   -942.47959     764.6168    14.736104    14.736104    14.736104            0            0            0 
  214500    287.59485   -1192.8435    212.88763   -979.95585    232.13872    15.009555    15.009555    15.009555            0            0            0 
  214600    315.70352   -1192.4499    233.69463    -958.7553    688.14218    15.000037    15.000037    15.000037            0            0            0 
  214700    302.72334   -1195.7127    224.08626    -971.6264    -826.4654    14.986165    14.986165    14.986165            0            0            0 
  214800    295.20775   -1201.1573    218.52296   -982.63435   -3195.0967    15.204933    15.204933    15.204933            0            0            0 
  214900    302.75707   -1208.3498    224.11123   -984.23853    -126.1179    14.959685    14.959685    14.959685            0            0            0 
  215000     266.0663   -1204.7455    196.95145   -1007.7941    386.35661    14.925864    14.925864    14.925864            0            0            0 
  215100     284.5452   -1198.9611    210.63017   -988.33091   -2410.2209    15.058852    15.058852    15.058852            0            0            0 
  215200    281.84623   -1197.4043     208.6323   -988.77203    944.84138    14.925733    14.925733    14.925733            0            0            0 
  215300    301.18453   -1232.0083    222.94718   -1009.0611   -250.17992    14.949176    14.949176    14.949176            0            0            0 
  215400    288.82245   -1194.7625    213.79634   -980.96613   -2077.9592    15.003182    15.003182    15.003182            0            0            0 
  215500    279.33964   -1187.0204    206.77684   -980.24355    3858.1993    14.832764    14.832764    14.832764            0            0            0 
  215600    333.08313    -1213.183    246.55962   -966.62336   -2714.9276    15.068312    15.068312    15.068312            0            0            0 
  215700    309.26741   -1199.0965     228.9304   -970.16611    443.26604    14.891865    14.891865    14.891865            0            0            0 
  215800    299.79133   -1192.6735    221.91589   -970.75765    2054.3094    14.947724    14.947724    14.947724            0            0            0 
  215900    315.86805   -1189.2747    233.81643   -955.45832    178.89657    15.144646    15.144646    15.144646            0            0            0 
  216000     315.8085   -1195.4193    233.77234     -961.647    151.26886    15.096817    15.096817    15.096817            0            0            0 
  216100     285.4382   -1198.7142     211.2912   -987.42295   -234.70077    15.102206    15.102206    15.102206            0            0            0 
  216200    281.76973   -1187.7322    208.57567   -979.15655   -950.31662    15.252346    15.252346    15.252346            0            0            0 
  216300    318.33185   -1181.0557    235.64021   -945.41552   -1379.6102    15.204579    15.204579    15.204579            0            0            0 
  216400     327.2579   -1207.6956    242.24759   -965.44799    110.45952    15.121931    15.121931    15.121931            0            0            0 
  216500    303.04772   -1200.2764    224.32637   -975.94998   -1216.0804    15.195517    15.195517    15.195517            0            0            0 
  216600    294.13333   -1211.0722    217.72763   -993.34455    746.04225    15.043777    15.043777    15.043777            0            0            0 
  216700    309.98494    -1204.202    229.46155   -974.74042     186.0912    15.005272    15.005272    15.005272            0            0            0 
  216800    262.40187   -1189.2214    194.23891   -994.98251   -1318.5166    15.158318    15.158318    15.158318            0            0            0 
  216900    295.16802   -1208.5536    218.49355   -990.06004    1642.6827    14.985024    14.985024    14.985024            0            0            0 
  217000    301.17515    -1205.789    222.94023   -982.84872    2094.7082    15.035842    15.035842    15.035842            0            0            0 
  217100    293.09334   -1196.3749     216.9578   -979.41706   -1986.5914    15.326167    15.326167    15.326167            0            0            0 
  217200     296.3986   -1202.0752    219.40447   -982.67077   -1560.0382    15.315478    15.315478    15.315478            0            0            0 
  217300    288.68664   -1204.9449    213.69581   -991.24906   -1187.2754    15.203291    15.203291    15.203291            0            0            0 
  217400    280.66543   -1201.7247    207.75824   -993.96647    952.86425    15.096691    15.096691    15.096691            0            0            0 
  217500    327.67641   -1193.3816    242.55738   -950.82422    67.914786    15.201844    15.201844    15.201844            0            0            0 
  217600    299.97691    -1195.843    222.05326   -973.78978   -2955.1684    15.313862    15.313862    15.313862            0            0            0 
  217700    267.80859   -1201.5915    198.24115   -1003.3503    685.04997     15.12718     15.12718     15.12718            0            0            0 
  217800    272.01124   -1183.9582     201.3521   -982.60609   -1951.1295    15.247206    15.247206    15.247206            0            0            0 
  217900    278.38903   -1221.5486    206.07317   -1015.4754   -17.744154    15.156826    15.156826    15.156826            0            0            0 
  218000    288.41646   -1216.2023    213.49581   -1002.7064    659.03938    15.164136    15.164136    15.164136            0            0            0 
  218100    274.76883   -1194.3842    203.39337   -990.99081   -445.16193     15.15455     15.15455     15.15455            0            0            0 
  218200     295.4613   -1211.6873    218.71065   -992.97669   -391.56661    15.033126    15.033126    15.033126            0            0            0 
  218300    303.57505   -1200.7357    224.71673   -976.01901    67.587019    15.045996    15.045996    15.045996            0            0            0 
  218400     325.9502    -1222.735    241.27958   -981.45539   -2195.1696    15.157976    15.157976    15.157976            0            0            0 
  218500    289.29751   -1178.8826      214.148   -964.73458    1386.5974    15.032726    15.032726    15.032726            0            0            0 
  218600    313.54736     -1200.02    232.09858   -967.92138   -1086.6669    15.136842    15.136842    15.136842            0            0            0 
  218700    293.68282   -1175.7322    217.39415     -958.338    1006.5703    15.158599    15.158599    15.158599            0            0            0 
  218800    286.41673   -1186.7754    212.01555   -974.75986     155.6103    15.082359    15.082359    15.082359            0            0            0 
  218900    297.38592   -1208.4908    220.13532   -988.35545    3182.7501    14.817476    14.817476    14.817476            0            0            0 
  219000    297.83221   -1214.9687    220.46568   -994.50304   -689.06203    15.043048    15.043048    15.043048            0            0            0 
  219100    294.54031    -1247.703     218.0289   -1029.6741    81.998956    14.909933    14.909933    14.909933            0            0            0 
  219200    295.03604   -1216.7906    218.39586   -998.39476    572.27714    14.796108    14.796108    14.796108            0            0            0 
  219300    294.06204   -1203.0587    217.67487    -985.3838   -1532.7585    15.000954    15.000954    15.000954            0            0            0 
  219400    274.47054   -1212.8577    203.17256   -1009.6851    814.03486    15.055657    15.055657    15.055657            0            0            0 
  219500    297.71698   -1212.9247    220.38038   -992.54435   -485.88148    15.171768    15.171768    15.171768            0            0            0 
  219600    301.27493   -1212.4879    223.01409   -989.47383   -438.92661    15.052353    15.052353    15.052353            0            0            0 
  219700    294.23948   -1208.7019    217.80621   -990.89573    985.74746    14.959459    14.959459    14.959459            0            0            0 
  219800    294.71469     -1215.14    218.15798   -996.98201   -569.98378    15.075844    15.075844    15.075844            0            0            0 
  219900    281.44138   -1208.6421    208.33262   -1000.3094      374.029    15.050025    15.050025    15.050025            0            0            0 
  220000    284.96805    -1212.731    210.94318   -1001.7879    613.28756    14.996656    14.996656    14.996656            0            0            0 
  220100     286.8497    -1210.251    212.33604   -997.91499   -1300.3596    14.957503    14.957503    14.957503            0            0            0 
  220200    291.59429   -1218.0288    215.84815   -1002.1807    2499.4019    14.849029    14.849029    14.849029            0            0            0 
  220300      294.911   -1213.6462    218.30329   -995.34286    379.14366    15.097063    15.097063    15.097063            0            0            0 
  220400     310.5764   -1203.9254    229.89936   -974.02604   -343.37216     15.02097     15.02097     15.02097            0            0            0 
  220500    305.86325    -1199.792    226.41053   -973.38142    1351.3077    15.062677    15.062677    15.062677            0            0            0 
  220600    281.48551   -1170.6078    208.36529   -962.24249    246.69901    15.262993    15.262993    15.262993            0            0            0 
  220700    291.12747    -1190.217    215.50259   -974.71439    1502.5294    14.994944    14.994944    14.994944            0            0            0 
  220800    282.85465   -1207.7335    209.37877   -998.35468    759.74663    14.871359    14.871359    14.871359            0            0            0 
  220900    298.53895   -1202.2705    220.98883   -981.28171   -859.77576     14.95895     14.95895     14.95895            0            0            0 
  221000    288.62139   -1183.4586    213.64751   -969.81107    660.20486    14.939061    14.939061    14.939061            0            0            0 
  221100     287.5991   -1194.4108    212.89078   -981.52005    -1971.747    14.970768    14.970768    14.970768            0            0            0 
  221200    299.24795   -1201.6533    221.51365   -980.13966   -436.97599    14.903527    14.903527    14.903527            0            0            0 
  221300    298.73265   -1208.0691    221.13221   -986.93689    -142.1709    14.995251    14.995251    14.995251            0            0            0 
  221400    295.70589    -1174.767     218.8917   -955.87533   -1014.5626    15.101929    15.101929    15.101929            0            0            0 
  221500    320.98118   -1186.9142    237.60134   -949.31286    1227.7853    14.930945    14.930945    14.930945            0            0            0 
  221600     329.0372   -1190.7562    243.56468   -947.19154   -1794.6694    15.317652    15.317652    15.317652            0            0            0 
  221700    316.88877   -1186.3017      234.572   -951.72965    904.42178     15.20432     15.20432     15.20432            0            0            0 
  221800    309.85177        -1186    229.36297   -956.63704   -1519.6901    15.134115    15.134115    15.134115            0            0            0 
  221900    320.84241   -1200.0036    237.49862   -962.50494    1588.9574    14.964437    14.964437    14.964437            0            0            0 
  222000      316.193    -1191.905    234.05696   -957.84806   -1030.2827    15.014901    15.014901    15.014901            0            0            0 
  222100    314.37837   -1200.4203    232.71371   -967.70658    2259.5263    14.721119    14.721119    14.721119            0            0            0 
  222200     295.7388   -1190.2142    218.91606   -971.29817   -937.74767    14.939201    14.939201    14.939201            0            0            0 
  222300    302.75982   -1174.1202    224.11326   -950.00696   -2018.8482     15.00834     15.00834     15.00834            0            0            0 
  222400    318.82789   -1192.7104     236.0074   -956.70304    -826.1682    14.936495    14.936495    14.936495            0            0            0 
  222500    321.93582   -1211.0162      238.308   -972.70825    1368.7108    14.927066    14.927066    14.927066            0            0            0 
  222600    295.53487   -1188.6945    218.76511   -969.92938   -838.76239    15.115286    15.115286    15.115286            0            0            0 
  222700    295.10299   -1211.3806    218.44542   -992.93514    694.89466    15.018613    15.018613    15.018613            0            0            0 
  222800    289.70431   -1216.7645    214.44913   -1002.3154   -890.40468    14.939517    14.939517    14.939517            0            0            0 
  222900    316.75343   -1225.2762    234.47181    -990.8044   -451.80028    14.887218    14.887218    14.887218            0            0            0 
  223000    302.28682   -1227.1368    223.76314   -1003.3737    1970.1445    14.771774    14.771774    14.771774            0            0            0 
  223100    291.98239   -1220.5777    216.13543   -1004.4423   -1810.2976    14.967775    14.967775    14.967775            0            0            0 
  223200    296.27029   -1214.2609    219.30949   -994.95142   -1241.3882    15.030952    15.030952    15.030952            0            0            0 
  223300    314.92246    -1199.102    233.11647   -965.98556   -39.311963    14.907172    14.907172    14.907172            0            0            0 
  223400    297.81279   -1207.1629     220.4513   -986.71163    467.29119    14.961638    14.961638    14.961638            0            0            0 
  223500    313.38225   -1194.2299    231.97635   -962.25359    145.63764    14.973991    14.973991    14.973991            0            0            0 
  223600    286.18088   -1193.9671    211.84096   -982.12615     1018.983    14.892997    14.892997    14.892997            0            0            0 
  223700    306.27976   -1189.4525    226.71884   -962.73363   -968.81099    14.935446    14.935446    14.935446            0            0            0 
  223800    300.00061   -1181.2396     222.0708   -959.16884    247.83508    14.789749    14.789749    14.789749            0            0            0 
  223900    304.94897   -1198.5949    225.73375   -972.86118    -879.3118    14.890807    14.890807    14.890807            0            0            0 
  224000    290.04089    -1205.084    214.69827   -990.38573   -978.40408    15.041902    15.041902    15.041902            0            0            0 
  224100    300.91696   -1233.5844    222.74911   -1010.8353     515.7993    15.050951    15.050951    15.050951            0            0            0 
  224200    307.49041     -1222.11    227.61501   -994.49502     220.7051      14.9736      14.9736      14.9736            0            0            0 
  224300    302.88238   -1195.0263    224.20398   -970.82236    920.51761    14.962864    14.962864    14.962864            0            0            0 
  224400    300.34298   -1195.0218    222.32424   -972.69755   -691.44801     15.02728     15.02728     15.02728            0            0            0 
  224500    311.69437   -1231.4379    230.72693    -1000.711    1755.8267     14.93694     14.93694     14.93694            0            0            0 
  224600    297.03441   -1213.7904    219.87512   -993.91528   -875.00891    15.067157    15.067157    15.067157            0            0            0 
  224700    310.46187   -1231.0215    229.81458    -1001.207    1453.0996    14.794922    14.794922    14.794922            0            0            0 
  224800     293.3619   -1215.5795     217.1566    -998.4229   -1553.8353    15.021633    15.021633    15.021633            0            0            0 
  224900    291.19183   -1213.6869    215.55024   -998.13662   -1412.6899    15.157139    15.157139    15.157139            0            0            0 
  225000    275.84399   -1198.7745    204.18924   -994.58527   -380.30501    15.024196    15.024196    15.024196            0            0            0 
  225100    322.22222   -1226.4646       238.52   -987.94462   -836.49969    15.053647    15.053647    15.053647            0            0            0 
  225200    289.30155   -1211.6135    214.15099   -997.46256   -651.97061    15.030004    15.030004    15.030004            0            0            0 
  225300    290.67667   -1200.3083     215.1689   -985.13944   -450.13256    14.975516    14.975516    14.975516            0            0            0 
  225400    312.80132   -1208.9944    231.54633   -977.44811   -196.28441    14.814688    14.814688    14.814688            0            0            0 
  225500    301.03858   -1193.2445    222.83914   -970.40538   -663.16275    14.952065    14.952065    14.952065            0            0            0 
  225600    317.97188   -1225.4799    235.37375   -990.10611     45.00053    14.901738    14.901738    14.901738            0            0            0 
  225700    322.31014   -1224.3244    238.58508   -985.73933   -1108.4844    14.846479    14.846479    14.846479            0            0            0 
  225800    304.68033   -1231.1289    225.53489    -1005.594   -1264.6667    14.911008    14.911008    14.911008            0            0            0 
  225900    291.95157   -1225.7296    216.11262    -1009.617     1480.795    14.693703    14.693703    14.693703            0            0            0 
  226000     287.9092     -1225.61    213.12032   -1012.4897   -265.16479    14.874127    14.874127    14.874127            0            0            0 
  226100    302.95549   -1203.3384    224.25811   -979.08034   -79.443479    14.843724    14.843724    14.843724            0            0            0 
  226200    291.84826   -1204.8746    216.03615   -988.83842   -870.50785    14.853164    14.853164    14.853164            0            0            0 
  226300    303.12894   -1210.0785     224.3865   -985.69204   -871.35205    14.877878    14.877878    14.877878            0            0            0 
  226400    281.15092   -1209.1442    208.11761   -1001.0266     428.6678    14.850226    14.850226    14.850226            0            0            0 
  226500    290.93537   -1186.1122    215.36039   -970.75182    1495.7896    14.822967    14.822967    14.822967            0            0            0 
  226600    320.85238   -1183.5574      237.506   -946.05143   -490.50139    14.859271    14.859271    14.859271            0            0            0 
  226700     300.1435   -1198.7219    222.17657   -976.54531   -1042.9062    15.040909    15.040909    15.040909            0            0            0 
  226800    320.26838   -1227.4644    237.07371   -990.39072   -1450.9942    15.070434    15.070434    15.070434            0            0            0 
  226900     302.5222   -1195.5165    223.93737   -971.57909    1500.0349    14.869059    14.869059    14.869059            0            0            0 
  227000    292.04387   -1199.6553    216.18095   -983.47433   -1260.8579    15.063007    15.063007    15.063007            0            0            0 
  227100     302.8479   -1215.5687    224.17846   -991.39019    2467.9054    14.817641    14.817641    14.817641            0            0            0 
  227200    279.24065   -1198.0277    206.70356   -991.32413   -330.09847    14.912527    14.912527    14.912527            0            0            0 
  227300    279.75432   -1216.6787     207.0838   -1009.5949   -1618.3216    14.978313    14.978313    14.978313            0            0            0 
  227400    306.51579   -1223.4993    226.89356   -996.60569    1661.5153    14.763007    14.763007    14.763007            0            0            0 
  227500    306.79029   -1251.2941    227.09676   -1024.1973   -342.29081    14.927675    14.927675    14.927675            0            0            0 
  227600    304.41415    -1248.516    225.33785   -1023.1781   -33.890093    14.967687    14.967687    14.967687            0            0            0 
  227700    283.91597   -1194.8305     210.1644   -984.66608   -31.889769    15.065701    15.065701    15.065701            0            0            0 
  227800    306.03192    -1214.047    226.53538   -987.51163   -399.05541     15.18921     15.18921     15.18921            0            0            0 
  227900    283.91373   -1210.0491    210.16274   -999.88641   -384.30659    14.986387    14.986387    14.986387            0            0            0 
  228000    293.26318   -1227.9444    217.08352   -1010.8608    1202.1388    14.789632    14.789632    14.789632            0            0            0 
  228100    300.62386   -1214.0987    222.53215   -991.56658   -766.00688     14.98732     14.98732     14.98732            0            0            0 
  228200     293.7888    -1231.239     217.4726   -1013.7664    530.46079    14.848503    14.848503    14.848503            0            0            0 
  228300    296.78077    -1238.196    219.68737   -1018.5086    1433.4958    14.843909    14.843909    14.843909            0            0            0 
  228400    310.72353   -1249.0495    230.00827   -1019.0412    2300.5853    14.787753    14.787753    14.787753            0            0            0 
  228500    293.83433   -1201.5645     217.5063   -984.05823    1268.7955    14.956322    14.956322    14.956322            0            0            0 
  228600    307.67791   -1196.1573    227.75381   -968.40347    724.40278    15.103268    15.103268    15.103268            0            0            0 
  228700    293.45384   -1212.2176    217.22465   -994.99298    127.20372    14.991271    14.991271    14.991271            0            0            0 
  228800    282.58106   -1228.9577    209.17625   -1019.7814   -580.28452     14.96255     14.96255     14.96255            0            0            0 
  228900    295.92381   -1224.3587    219.05301   -1005.3057    1723.2176    14.873134    14.873134    14.873134            0            0            0 
  229000    294.36014   -1201.7431    217.89553   -983.84758   -1179.4109    15.112287    15.112287    15.112287            0            0            0 
  229100    290.14812   -1199.8082    214.77764   -985.03056   -311.66337    15.080313    15.080313    15.080313            0            0            0 
  229200    296.24778   -1195.9681    219.29283   -976.67532    451.93219    15.110065    15.110065    15.110065            0            0            0 
  229300    293.46394   -1197.5836    217.23213   -980.35149   -469.37353     15.17062     15.17062     15.17062            0            0            0 
  229400    313.68711   -1203.3452    232.20202   -971.14317   -1547.3428     15.00611     15.00611     15.00611            0            0            0 
  229500    299.07772   -1208.8009    221.38765   -987.41329    553.92521    14.907803    14.907803    14.907803            0            0            0 
  229600    274.73312   -1209.9492    203.36693   -1006.5823   -1795.2141    14.952683    14.952683    14.952683            0            0            0 
  229700    293.37406   -1217.0884     217.1656   -999.92275    811.55185    14.681877    14.681877    14.681877            0            0            0 
  229800    297.84412   -1220.5189    220.47449   -1000.0444   -1405.5017    14.709091    14.709091    14.709091            0            0            0 
  229900    299.79139   -1246.4484    221.91593   -1024.5324   -2944.4794    14.842505    14.842505    14.842505            0            0            0 
  230000      289.372   -1221.8328    214.20314   -1007.6297   -247.21116    14.787389    14.787389    14.787389            0            0            0 
  230100     278.0339   -1202.6359    205.81028   -996.82558   -913.82833    14.956944    14.956944    14.956944            0            0            0 
  230200     297.3707   -1205.0328    220.12405   -984.90877     161.1206    14.904199    14.904199    14.904199            0            0            0 
  230300    294.31632   -1199.7929    217.86309   -981.92978    462.90055    14.878247    14.878247    14.878247            0            0            0 
  230400     286.3983   -1219.0229     212.0019    -1007.021    558.72071    14.885004    14.885004    14.885004            0            0            0 
  230500    294.24812    -1205.133    217.81261   -987.32037   -288.08159     15.00378     15.00378     15.00378            0            0            0 
  230600    295.12408   -1176.1777    218.46102   -957.71669   -324.55644    15.116773    15.116773    15.116773            0            0            0 
  230700    282.66244   -1174.8912    209.23649    -965.6547    1105.5189    15.097851    15.097851    15.097851            0            0            0 
  230800    292.47377   -1177.7848    216.49917   -961.28558    337.63997    15.082478    15.082478    15.082478            0            0            0 
  230900    298.91144   -1196.3807    221.26456   -975.11618    808.36315    15.205146    15.205146    15.205146            0            0            0 
  231000    329.13779   -1218.2637    243.63915   -974.62459    1922.4564    15.088712    15.088712    15.088712            0            0            0 
  231100    305.35847   -1179.2883    226.03687   -953.25139     815.6262     15.10762     15.10762     15.10762            0            0            0 
  231200    314.33599   -1175.3678    232.68234   -942.68544   -236.06004    15.191506    15.191506    15.191506            0            0            0 
  231300    323.82311   -1176.4794    239.70504   -936.77432     140.1493    15.217922    15.217922    15.217922            0            0            0 
  231400    300.95707   -1182.9215     222.7788   -960.14265   -1721.6808    15.278324    15.278324    15.278324            0            0            0 
  231500    305.74303   -1173.9164    226.32154   -947.59486   -1803.2163     15.40441     15.40441     15.40441            0            0            0 
  231600    292.63796   -1154.0578    216.62072    -937.4371    1336.4947    15.158601    15.158601    15.158601            0            0            0 
  231700    310.96248   -1197.9568    230.18515   -967.77169    1139.9155    15.113297    15.113297    15.113297            0            0            0 
  231800    332.02171   -1192.4631    245.77392   -946.68918   -1901.1263    15.323675    15.323675    15.323675            0            0            0 
  231900    323.32141   -1175.6254    239.33366   -936.29173    2160.7579    15.149324    15.149324    15.149324            0            0            0 
  232000    303.04924   -1172.8314     224.3275   -948.50387   -346.54443    15.418479    15.418479    15.418479            0            0            0 
  232100    314.81925   -1214.5701    233.04007   -981.53008   -293.79192    15.382585    15.382585    15.382585            0            0            0 
  232200    330.27842   -1213.5084    244.48348   -969.02494     429.1354    15.065559    15.065559    15.065559            0            0            0 
  232300    334.32209   -1194.1155    247.47674   -946.63881    1105.9458    14.846819    14.846819    14.846819            0            0            0 
  232400    302.74805   -1171.6583    224.10455   -947.55372   -2406.0248    15.099937    15.099937    15.099937            0            0            0 
  232500    322.69003   -1182.7775    238.86629   -943.91119    353.63317    15.073872    15.073872    15.073872            0            0            0 
  232600    294.06031   -1169.9781    217.67359   -952.30447   -847.97499    15.237829    15.237829    15.237829            0            0            0 
  232700     328.1964   -1202.3851     242.9423   -959.44284    469.16445    15.084566    15.084566    15.084566            0            0            0 
  232800    275.05877   -1222.7871    203.60799   -1019.1791    1397.1274     14.84169     14.84169     14.84169            0            0            0 
  232900    285.61166    -1198.148     211.4196   -986.72842     -3.87409    15.021518    15.021518    15.021518            0            0            0 
  233000    291.12481   -1181.8071    215.50063   -966.30647   -913.92438    15.085759    15.085759    15.085759            0            0            0 
  233100    300.09309   -1172.7319    222.13926   -950.59264   -536.37993    15.071815    15.071815    15.071815            0            0            0 
  233200    307.04473   -1182.5722     227.2851   -955.28708    658.88662    14.990072    14.990072    14.990072            0            0            0 
  233300    320.21344   -1223.8889    237.03303   -986.85584    1799.5998    14.873577    14.873577    14.873577            0            0            0 
  233400    285.07807   -1203.8866    211.02462   -992.86193    -1452.018    15.198284    15.198284    15.198284            0            0            0 
  233500     281.7546   -1215.3739    208.56448   -1006.8094   -1158.8098    15.009098    15.009098    15.009098            0            0            0 
  233600    294.27012   -1224.2993    217.82889   -1006.4704    777.53635    14.882258    14.882258    14.882258            0            0            0 
  233700    271.18185   -1210.4662    200.73816    -1009.728   -742.29293    15.062411    15.062411    15.062411            0            0            0 
  233800    303.35905   -1211.2632    224.55683   -986.70636    819.34006    15.109266    15.109266    15.109266            0            0            0 
  233900    284.51707   -1175.8943    210.60935   -965.28493   -1068.5424    15.282316    15.282316    15.282316            0            0            0 
  234000    338.99752   -1194.3611    250.93766   -943.42345    206.11709    15.062503    15.062503    15.062503            0            0            0 
  234100    309.13227   -1182.1564    228.83037   -953.32605    975.82485    15.147765    15.147765    15.147765            0            0            0 
  234200    307.15806   -1194.5692    227.36899   -967.20021    -2007.212    15.252011    15.252011    15.252011            0            0            0 
  234300    295.15828   -1200.1738    218.48634   -981.68749    820.73697    15.072446    15.072446    15.072446            0            0            0 
  234400    307.49693   -1194.6766    227.61983   -967.05673    672.55875    14.965782    14.965782    14.965782            0            0            0 
  234500    291.01496   -1186.4128    215.41931   -970.99352    1701.3412    14.949486    14.949486    14.949486            0            0            0 
  234600    296.32053   -1198.5813    219.34668   -979.23458     1284.185    14.926191    14.926191    14.926191            0            0            0 
  234700    301.28228    -1213.304    223.01954   -990.28444    402.18822    14.979557    14.979557    14.979557            0            0            0 
  234800    316.06109   -1242.2537    233.95932   -1008.2944   -240.41136    14.974338    14.974338    14.974338            0            0            0 
  234900     305.3873   -1231.8893    226.05821   -1005.8311   -2378.7789    15.051091    15.051091    15.051091            0            0            0 
  235000    311.66622   -1201.8957    230.70609   -971.18963   -365.66755    14.888362    14.888362    14.888362            0            0            0 
  235100    290.75274   -1213.2289    215.22521   -998.00366   -538.56255    14.829821    14.829821    14.829821            0            0            0 
  235200    272.84169   -1203.0045    201.96683   -1001.0377    -24.02393    14.856441    14.856441    14.856441            0            0            0 
  235300    333.25097   -1229.3525    246.68386   -982.66862    1282.7742      14.7314      14.7314      14.7314            0            0            0 
  235400    285.47511   -1188.6905    211.31853   -977.37196   -1563.8783    15.022495    15.022495    15.022495            0            0            0 
  235500    308.76135   -1175.2699    228.55581    -946.7141    884.76769    14.828543    14.828543    14.828543            0            0            0 
  235600    302.57856   -1191.2427    223.97908   -967.26359    -459.0846    14.855293    14.855293    14.855293            0            0            0 
  235700    296.15276   -1205.7216    219.22249   -986.49914   -915.63066    14.975134    14.975134    14.975134            0            0            0 
  235800     275.5793   -1204.9497    203.99331   -1000.9564   -2217.3618    15.019661    15.019661    15.019661            0            0            0 
  235900    284.35156   -1210.2238    210.48684   -999.73693   -930.53808    14.973524    14.973524    14.973524            0            0            0 
  236000    306.05636   -1202.5494    226.55348   -975.99593   -1555.2379    15.154882    15.154882    15.154882            0            0            0 
  236100      299.127   -1213.5549    221.42412   -992.13077    409.28557    14.998591    14.998591    14.998591            0            0            0 
  236200    285.37797   -1224.2912    211.24662   -1013.0445   -324.87381    14.967149    14.967149    14.967149            0            0            0 
  236300    288.67177    -1205.679     213.6848   -991.99417    382.41672    14.991769    14.991769    14.991769            0            0            0 
  236400    310.86533   -1206.1388    230.11324   -976.02553   -254.51397    15.137862    15.137862    15.137862            0            0            0 
  236500    336.69736   -1221.4447      249.235   -972.20973   -245.76772    15.180084    15.180084    15.180084            0            0            0 
  236600    303.12257   -1185.2405    224.38178   -960.85869    319.27829    15.152653    15.152653    15.152653            0            0            0 
  236700    288.12008   -1186.6177    213.27642   -973.34131    1664.5124    14.933346    14.933346    14.933346            0            0            0 
  236800    323.25726   -1194.6509    239.28617   -955.36473    476.72916    15.038311    15.038311    15.038311            0            0            0 
  236900     300.9905   -1202.1828    222.80355    -979.3793   -1072.2984    15.074285    15.074285    15.074285            0            0            0 
  237000    289.92924   -1198.6519    214.61563   -984.03627    354.69515    14.913151    14.913151    14.913151            0            0            0 
  237100    300.01175   -1194.9993    222.07904   -972.92025    1794.9115    14.909369    14.909369    14.909369            0            0            0 
  237200    362.44312   -1189.2231     268.2929   -920.93018   -1590.5163    15.075187    15.075187    15.075187            0            0            0 
  237300    320.07311   -1188.2342    236.92916   -951.30507     587.4491    14.980501    14.980501    14.980501            0            0            0 
  237400    329.88349   -1232.4374    244.19114   -988.24622    90.914148    14.741271    14.741271    14.741271            0            0            0 
  237500    315.27181   -1203.3854    233.37507   -970.01029     510.5487     14.68007     14.68007     14.68007            0            0            0 
  237600    300.92221   -1163.5454      222.753   -940.79237   -640.70172     14.95053     14.95053     14.95053            0            0            0 
  237700    285.82235   -1179.4268    211.57556    -967.8512     348.6002    15.073235    15.073235    15.073235            0            0            0 
  237800    326.16774   -1183.5205    241.44061   -942.07989    627.88433    15.068977    15.068977    15.068977            0            0            0 
  237900    290.21616   -1202.7164    214.82801   -987.88839    878.34638    14.902346    14.902346    14.902346            0            0            0 
  238000    304.20737   -1193.7386    225.18479   -968.55381   -1137.6521    15.028979    15.028979    15.028979            0            0            0 
  238100    284.50094   -1199.1905    210.59741   -988.59311    322.09745    14.965788    14.965788    14.965788            0            0            0 
  238200    310.44024    -1224.357    229.79858   -994.55843    2647.4621    14.818559    14.818559    14.818559            0            0            0 
  238300    313.52433   -1230.8284    232.08153   -998.74689    2457.0888    14.632285    14.632285    14.632285            0            0            0 
  238400    282.42116   -1202.6369    209.05788   -993.57897   -1222.3949    14.883774    14.883774    14.883774            0            0            0 
  238500    324.40582   -1212.3015    240.13638   -972.16511   -700.68261    14.905167    14.905167    14.905167            0            0            0 
  238600    282.58565   -1208.2899    209.17965   -999.11027   -30.030367    14.885927    14.885927    14.885927            0            0            0 
  238700    307.93988   -1240.4656    227.94772   -1012.5179    -9.825444    14.855835    14.855835    14.855835            0            0            0 
  238800    287.72709   -1210.1625    212.98552   -997.17702   -32.887152    14.818311    14.818311    14.818311            0            0            0 
  238900    307.18358   -1209.8027    227.38789   -982.41484    -676.1245    14.778912    14.778912    14.778912            0            0            0 
  239000    291.44482   -1218.2541    215.73751   -1002.5166   -1906.2534    14.841336    14.841336    14.841336            0            0            0 
  239100    307.67965   -1210.4341    227.75509   -982.67898    934.66132    14.718939    14.718939    14.718939            0            0            0 
  239200    339.42135   -1212.2869    251.25139   -961.03552    233.98069    14.971098    14.971098    14.971098            0            0            0 
  239300    307.15381   -1192.0567    227.36584   -964.69087    114.25397    15.040909    15.040909    15.040909            0            0            0 
  239400     301.2022   -1222.3681    222.96026   -999.40784   -1998.1119    14.980214    14.980214    14.980214            0            0            0 
  239500    324.51714    -1210.079    240.21879   -969.86018    -550.0683    15.071402    15.071402    15.071402            0            0            0 
  239600    319.45938   -1199.8869    236.47485     -963.412    920.96667    15.004246    15.004246    15.004246            0            0            0 
  239700    288.05239   -1199.8111    213.22632   -986.58481    404.36782    14.971092    14.971092    14.971092            0            0            0 
  239800    300.56527   -1198.9821    222.48878   -976.49327    -1934.273    15.059726    15.059726    15.059726            0            0            0 
  239900    309.28777   -1196.9299    228.94547   -967.98445    296.93511      15.0321      15.0321      15.0321            0            0            0 
  240000    300.26474   -1162.8992    222.26632   -940.63283   -1468.8621    15.178009    15.178009    15.178009            0            0            0 
  240100    320.96889   -1163.1548    237.59224   -925.56257    529.58744    15.107383    15.107383    15.107383            0            0            0 
  240200    322.58157   -1169.7182      238.786   -930.93219   -1098.0345    15.129296    15.129296    15.129296            0            0            0 
  240300     324.9827   -1192.0699     240.5634   -951.50648    743.53613    15.045132    15.045132    15.045132            0            0            0 
  240400    335.78141   -1193.9979    248.55698   -945.44092   -1101.5412    15.301085    15.301085    15.301085            0            0            0 
  240500    319.56897   -1186.8139    236.55598   -950.25789   -1710.1202    15.364161    15.364161    15.364161            0            0            0 
  240600    292.70049   -1214.8883      216.667   -998.22126     551.2709    14.921645    14.921645    14.921645            0            0            0 
  240700     289.0084   -1215.3693    213.93399   -1001.4353   -14.804385    15.179435    15.179435    15.179435            0            0            0 
  240800    285.61436   -1191.5127    211.42161   -980.09105   -851.90077    15.326086    15.326086    15.326086            0            0            0 
  240900    300.44212   -1209.4674    222.39762   -987.06975    291.43444    15.180764    15.180764    15.180764            0            0            0 
  241000    316.35452    -1208.813    234.17653   -974.63643    -164.6947    15.157545    15.157545    15.157545            0            0            0 
  241100    308.32376   -1192.5654    228.23189   -964.33348   -572.24301    15.089928    15.089928    15.089928            0            0            0 
  241200    302.45502   -1191.6202    223.88764    -967.7326    186.08093    15.095206    15.095206    15.095206            0            0            0 
  241300    313.32104   -1189.3081    231.93104   -957.37703   -552.14899    15.174999    15.174999    15.174999            0            0            0 
  241400    276.75616   -1173.7506    204.86446   -968.88616   -524.06903    15.057955    15.057955    15.057955            0            0            0 
  241500     310.3618   -1203.6729    229.74051    -973.9324   -277.58443    14.928538    14.928538    14.928538            0            0            0 
  241600    301.87809   -1196.2329    223.46058   -972.77235   -72.415761    14.985531    14.985531    14.985531            0            0            0 
  241700    309.01436   -1184.8774    228.74309   -956.13433    926.28909    14.999343    14.999343    14.999343            0            0            0 
  241800     298.2025   -1190.4242    220.73977   -969.68443    883.65825    14.917416    14.917416    14.917416            0            0            0 
  241900    285.21738   -1175.1132    211.12775   -963.98541    -238.9266    15.031419    15.031419    15.031419            0            0            0 
  242000    308.29617    -1206.569    228.21146   -978.35757    1735.5419    14.830192    14.830192    14.830192            0            0            0 
  242100    296.40403    -1193.162    219.40848   -973.75348   -893.56622    14.851454    14.851454    14.851454            0            0            0 
  242200     299.5701   -1234.2487    221.75212   -1012.4966    383.51367    14.796333    14.796333    14.796333            0            0            0 
  242300    310.51182   -1233.2223    229.85156   -1003.3707    556.58878    14.839886    14.839886    14.839886            0            0            0 
  242400    289.05349   -1213.4781    213.96737   -999.51075   -446.26623    15.084903    15.084903    15.084903            0            0            0 
  242500     310.2404   -1181.4835    229.65065   -951.83289    2229.3726    15.039976    15.039976    15.039976            0            0            0 
  242600    316.91932   -1217.2472    234.59461   -982.65255    814.16748    14.979373    14.979373    14.979373            0            0            0 
  242700    295.45813   -1215.8977     218.7083   -997.18936    310.33856    14.963375    14.963375    14.963375            0            0            0 
  242800    293.69984    -1215.729    217.40675    -998.3222    1043.9101    14.960821    14.960821    14.960821            0            0            0 
  242900    266.06791   -1194.8821    196.95264   -997.92949     1779.034    14.972008    14.972008    14.972008            0            0            0 
  243000    294.41984   -1222.0727    217.93972    -1004.133   -1020.3936    15.042986    15.042986    15.042986            0            0            0 
  243100    281.98308   -1216.2266    208.73361    -1007.493    514.61143    14.943519    14.943519    14.943519            0            0            0 
  243200    293.25007   -1222.4393    217.07382   -1005.3655   -630.11031    15.061033    15.061033    15.061033            0            0            0 
  243300    301.51921   -1226.5172    223.19492   -1003.3223    127.35047    14.986971    14.986971    14.986971            0            0            0 
  243400    286.80908   -1197.2886    212.30597   -984.98261    272.29366    15.068804    15.068804    15.068804            0            0            0 
  243500    303.47495   -1203.0405    224.64263   -978.39785   -1573.9819    15.248284    15.248284    15.248284            0            0            0 
  243600    303.55152   -1196.3785     224.6993   -971.67924    336.67367    15.103861    15.103861    15.103861            0            0            0 
  243700    314.41159   -1240.9894    232.73831   -1008.2511    3059.4104    14.922222    14.922222    14.922222            0            0            0 
  243800    299.27987   -1215.9403    221.53728   -994.40306   -1105.2139    15.176847    15.176847    15.176847            0            0            0 
  243900    294.99594   -1191.7993    218.36617    -973.4331    2483.1485    15.035813    15.035813    15.035813            0            0            0 
  244000    307.49336    -1224.893    227.61719   -997.27581    955.46816    14.996708    14.996708    14.996708            0            0            0 
  244100     294.0398   -1213.8381     217.6584   -996.17968    249.22058    14.868279    14.868279    14.868279            0            0            0 
  244200    289.63039   -1198.0715    214.39441   -983.67707   -1693.8132    14.926578    14.926578    14.926578            0            0            0 
  244300    289.94956   -1209.1402    214.63066   -994.50955   -7.1356745    14.898589    14.898589    14.898589            0            0            0 
  244400    308.56255   -1206.9804    228.40864   -978.57178    432.46451    15.004001    15.004001    15.004001            0            0            0 
  244500    290.80759   -1214.4178    215.26581   -999.15198    1766.0447    14.863765    14.863765    14.863765            0            0            0 
  244600    314.65059   -1205.7493    232.91522   -972.83411   -2856.8895    14.978299    14.978299    14.978299            0            0            0 
  244700    330.19008   -1227.4717    244.41809   -983.05365   -1245.0146    14.902693    14.902693    14.902693            0            0            0 
  244800    297.55351   -1222.3881    220.25937   -1002.1287    1192.7008    14.876721    14.876721    14.876721            0            0            0 
  244900    301.61862     -1212.19    223.26851   -988.92148    62.268628    15.033593    15.033593    15.033593            0            0            0 
  245000    285.47178   -1218.6252    211.31606   -1007.3092    1112.0099    15.035365    15.035365    15.035365            0            0            0 
  245100    298.95752   -1196.7827    221.29867     -975.484   -391.16309    14.957912    14.957912    14.957912            0            0            0 
  245200     280.6483   -1206.9698    207.74555   -999.22422    509.93322    14.831577    14.831577    14.831577            0            0            0 
  245300    301.20464   -1240.1765    222.96207   -1017.2144     2800.449    14.754633    14.754633    14.754633            0            0            0 
  245400    275.26139   -1206.4484    203.75797   -1002.6904    751.37518    14.919807    14.919807    14.919807            0            0            0 
  245500    314.73676   -1216.7804    232.97901   -983.80144    1272.8193    15.042971    15.042971    15.042971            0            0            0 
  245600    297.95987   -1189.3622    220.56018   -968.80198    473.79018    15.038377    15.038377    15.038377            0            0            0 
  245700     311.3964   -1227.0669    230.50635   -996.56054    453.61957    14.893238    14.893238    14.893238            0            0            0 
  245800    312.28828   -1189.8467    231.16655   -958.68016    1327.2638    14.779383    14.779383    14.779383            0            0            0 
  245900    309.08505   -1216.4025    228.79542   -987.60713    606.48899     14.87864     14.87864     14.87864            0            0            0 
  246000    305.21947   -1204.5385    225.93398   -978.60449      21.7033    15.131303    15.131303    15.131303            0            0            0 
  246100    291.41699   -1190.7965    215.71691   -975.07959    1117.9127    15.079309    15.079309    15.079309            0            0            0 
  246200    328.45638   -1190.4852    243.13474   -947.35045    1216.1626    14.959657    14.959657    14.959657            0            0            0 
  246300    282.68695   -1186.2284    209.25463   -976.97378   -2039.2133    15.129924    15.129924    15.129924            0            0            0 
  246400    312.34059   -1202.4594    231.20528   -971.25409    1423.5546    14.986616    14.986616    14.986616            0            0            0 
  246500    329.38464   -1207.2472    243.82187   -963.42535  -0.13990974    15.085276    15.085276    15.085276            0            0            0 
  246600    303.73129   -1183.9052    224.83237   -959.07287   -1007.5932    15.105837    15.105837    15.105837            0            0            0 
  246700    326.34501   -1204.5605    241.57183   -962.98863    1733.8458    14.767499    14.767499    14.767499            0            0            0 
  246800    303.17515   -1192.5092    224.42071   -968.08849   -1869.9197    14.833346    14.833346    14.833346            0            0            0 
  246900    319.88332   -1198.3472    236.78867   -961.55855   -11.051085    14.672153    14.672153    14.672153            0            0            0 
  247000    302.16964   -1195.1635    223.67639   -971.48715   -968.63013    14.807597    14.807597    14.807597            0            0            0 
  247100    299.76364   -1194.0079    221.89539   -972.11247   -1366.5437    14.819662    14.819662    14.819662            0            0            0 
  247200    297.35004   -1189.1825    220.10876   -969.07376    56.400362    14.788079    14.788079    14.788079            0            0            0 
  247300    266.94143    -1184.098    197.59926   -986.49878   -1347.6103    15.002643    15.002643    15.002643            0            0            0 
  247400    281.12025   -1213.8686    208.09491   -1005.7737     296.7633    14.933072    14.933072    14.933072            0            0            0 
  247500    299.70651   -1211.3447     221.8531   -989.49162   -1102.3082     14.89521     14.89521     14.89521            0            0            0 
  247600    286.35442   -1227.9956    211.96942   -1016.0262    -1242.771    14.930166    14.930166    14.930166            0            0            0 
  247700    302.93188   -1221.6679    224.24062   -997.42732    399.73922     14.83089     14.83089     14.83089            0            0            0 
  247800    301.97871   -1207.1508    223.53506   -983.61575    1210.4885    14.792433    14.792433    14.792433            0            0            0 
  247900    330.19981   -1202.8123    244.42529   -958.38697    1478.1098    14.813254    14.813254    14.813254            0            0            0 
  248000    257.38086   -1174.2548    190.52219    -983.7326   -1030.0747    14.945672    14.945672    14.945672            0            0            0 
  248100      320.743    -1214.583    237.42504   -977.15793    784.82719    14.764412    14.764412    14.764412            0            0            0 
  248200    304.74424    -1230.995     225.5822   -1005.4128   -536.97998    14.832532    14.832532    14.832532            0            0            0 
  248300    300.45525   -1207.8101    222.40734   -985.40279   -1059.4866    14.919554    14.919554    14.919554            0            0            0 
  248400    251.19206    -1195.398    185.94103    -1009.457    -386.3489    14.970939    14.970939    14.970939            0            0            0 
  248500     296.8177   -1203.2393     219.7147   -983.52457   -411.40911    14.962376    14.962376    14.962376            0            0            0 
  248600     288.3645   -1196.8465    213.45735   -983.38914    128.52034    15.037572    15.037572    15.037572            0            0            0 
  248700    308.24542   -1198.7026    228.17389   -970.52875    421.84353    14.983683    14.983683    14.983683            0            0            0 
  248800    300.15701   -1198.2353    222.18658   -976.04877   -331.91704    14.987543    14.987543    14.987543            0            0            0 
  248900    284.90674   -1191.5173     210.8978   -980.61947    901.42114    14.929352    14.929352    14.929352            0            0            0 
  249000    287.06755   -1208.3518     212.4973   -995.85451    -2446.037    15.173116    15.173116    15.173116            0            0            0 
  249100    302.83093   -1204.7971     224.1659   -980.63117    565.00349    15.134068    15.134068    15.134068            0            0            0 
  249200    304.86672   -1199.2934    225.67286   -973.62054   -117.93126     15.18952     15.18952     15.18952            0            0            0 
  249300    301.28674   -1195.0196    223.02284   -971.99679   -616.62754     15.12635     15.12635     15.12635            0            0            0 
  249400    311.73875   -1180.0269    230.75978   -949.26713     1263.177    14.922024    14.922024    14.922024            0            0            0 
  249500    313.72161   -1175.1763    232.22756   -942.94872   -561.09918     15.20654     15.20654     15.20654            0            0            0 
  249600     325.9582   -1198.2044     241.2855   -956.91892   -72.255174    15.008567    15.008567    15.008567            0            0            0 
  249700    307.24615   -1220.3889     227.4342   -992.95473    632.69207    14.863524    14.863524    14.863524            0            0            0 
  249800    297.06866   -1191.1368    219.90047   -971.23633   -77.239333    14.886795    14.886795    14.886795            0            0            0 
  249900    303.10806   -1177.1908    224.37104    -952.8198   -1695.1297    14.884487    14.884487    14.884487            0            0            0 
  250000    293.92985   -1215.0404    217.57702   -997.46335    2147.4671    14.690948    14.690948    14.690948            0            0            0 
  250100      286.859   -1226.5544    212.34293   -1014.2115   -1384.4344    15.002973    15.002973    15.002973            0            0            0 
  250200    317.64163   -1226.0792    235.12929   -990.94989   -117.84506    14.945145    14.945145    14.945145            0            0            0 
  250300    280.59998   -1207.8761    207.70978   -1000.1663    -1339.074     15.02873     15.02873     15.02873            0            0            0 
  250400    294.68326   -1210.1509    218.13472   -992.01623    662.65729    15.028886    15.028886    15.028886            0            0            0 
  250500    277.92161   -1203.3467    205.72716   -997.61955    631.69501    15.087097    15.087097    15.087097            0            0            0 
  250600    290.81244   -1200.1072     215.2694   -984.83785    523.82029    15.031098    15.031098    15.031098            0            0            0 
  250700    304.75978   -1209.1299     225.5937   -983.53618    1517.7276    14.957721    14.957721    14.957721            0            0            0 
  250800    294.17819   -1193.3093    217.76084   -975.54844   -157.95139    15.144541    15.144541    15.144541            0            0            0 
  250900    291.02339   -1204.6319    215.42555   -989.20634    1140.5612    15.086399    15.086399    15.086399            0            0            0 
  251000    294.48572   -1210.3028    217.98849   -992.31429    779.96178    15.040524    15.040524    15.040524            0            0            0 
  251100    281.20999    -1188.774    208.16133   -980.61263   -581.97706    15.223043    15.223043    15.223043            0            0            0 
  251200    305.71601   -1222.6411    226.30154   -996.33954     2036.214    14.986553    14.986553    14.986553            0            0            0 
  251300    281.39076   -1192.2066    208.29515   -983.91145   -531.65765    15.048154    15.048154    15.048154            0            0            0 
  251400    317.82559   -1202.1789    235.26546   -966.91345    860.86466    14.960091    14.960091    14.960091            0            0            0 
  251500    326.53174   -1204.6995    241.71006   -962.98942     2272.345    14.817254    14.817254    14.817254            0            0            0 
  251600    321.25635   -1201.5812    237.80504   -963.77619    46.874246    14.786427    14.786427    14.786427            0            0            0 
  251700    314.33606   -1183.6821     232.6824   -950.99974    325.27687    14.859236    14.859236    14.859236            0            0            0 
  251800     313.0296   -1179.1404    231.71531   -947.42505   -725.23973    15.048619    15.048619    15.048619            0            0            0 
  251900    310.63362   -1193.2779    229.94172   -963.33615    868.74603    15.044772    15.044772    15.044772            0            0            0 
  252000    325.15288   -1194.5319    240.68938   -953.84248   -442.23984    15.168417    15.168417    15.168417            0            0            0 
  252100    307.77214   -1196.8214    227.82355   -968.99784    986.11265    15.064203    15.064203    15.064203            0            0            0 
  252200    276.92846    -1186.565      204.992   -981.57304    2951.9971    14.939641    14.939641    14.939641            0            0            0 
  252300    295.63197   -1193.1196    218.83698    -974.2826    -706.7168    15.088548    15.088548    15.088548            0            0            0 
  252400    288.27566   -1211.2943    213.39159    -997.9027    89.155172    15.050836    15.050836    15.050836            0            0            0 
  252500    268.36334   -1206.8592     198.6518   -1008.2074   -290.77892    15.048292    15.048292    15.048292            0            0            0 
  252600    269.67287   -1198.1154    199.62116   -998.49425    386.92269     15.12669     15.12669     15.12669            0            0            0 
  252700     290.7244   -1179.7255    215.20423    -964.5213   -803.95647    15.282843    15.282843    15.282843            0            0            0 
  252800    303.05545   -1189.6978     224.3321   -965.36569    584.67631    15.219576    15.219576    15.219576            0            0            0 
  252900    290.16036   -1192.8331    214.78671   -978.04643   -879.26414    15.254845    15.254845    15.254845            0            0            0 
  253000    289.26917   -1180.2245    214.12702   -966.09747    1725.9916    15.160215    15.160215    15.160215            0            0            0 
  253100    294.24231   -1198.1856    217.80831   -980.37733   -2247.7765    15.415239    15.415239    15.415239            0            0            0 
  253200    286.79577   -1176.8475    212.29612    -964.5514    2238.5027    15.241248    15.241248    15.241248            0            0            0 
  253300    286.95125   -1181.5344    212.41122   -969.12317    345.23949    15.365282    15.365282    15.365282            0            0            0 
  253400    277.88265   -1173.1203    205.69832   -967.42198    154.52536    15.408065    15.408065    15.408065            0            0            0 
  253500    297.58485   -1194.9116    220.28257   -974.62901   -1579.9797    15.421191    15.421191    15.421191            0            0            0 
  253600    307.37799    -1194.726    227.53179   -967.19421      1064.71    15.106723    15.106723    15.106723            0            0            0 
  253700    310.15693    -1182.803    229.58886   -953.21414   -748.69648    15.285018    15.285018    15.285018            0            0            0 
  253800    301.60422   -1179.8438    223.25785    -956.5859    551.27137    15.106837    15.106837    15.106837            0            0            0 
  253900    301.08808   -1179.4671    222.87578   -956.59136   -779.22823    15.094039    15.094039    15.094039            0            0            0 
  254000    328.25296   -1175.5527    242.98417   -932.56858    3384.1187    14.889344    14.889344    14.889344            0            0            0 
  254100    320.28081   -1202.0623     237.0829   -964.97936    53.382433    15.047491    15.047491    15.047491            0            0            0 
  254200    312.38409   -1169.0749    231.23748   -937.83739    745.70774    15.220779    15.220779    15.220779            0            0            0 
  254300    310.34532   -1181.6846    229.72831    -951.9563   -55.786867    15.172746    15.172746    15.172746            0            0            0 
  254400    313.40863    -1193.301    231.99588    -961.3051    461.82656    15.112372    15.112372    15.112372            0            0            0 
  254500    314.04016   -1181.5722    232.46336   -949.10887     620.5616    14.992663    14.992663    14.992663            0            0            0 
  254600    264.17721   -1184.7319    195.55309   -989.17877   -154.80372    15.099122    15.099122    15.099122            0            0            0 
  254700    296.65315   -1236.9974     219.5929   -1017.4045   -1475.5071    15.202296    15.202296    15.202296            0            0            0 
  254800    315.57954   -1203.7984    233.60286   -970.19556   -501.77695    15.086506    15.086506    15.086506            0            0            0 
  254900    271.19248   -1196.8211    200.74603   -996.07503   -1443.3465    15.309374    15.309374    15.309374            0            0            0 
  255000    283.39998   -1193.7549    209.78244   -983.97247    357.75179    15.133744    15.133744    15.133744            0            0            0 
  255100    307.16668   -1219.2849    227.37537    -991.9095    1458.5921    15.031558    15.031558    15.031558            0            0            0 
  255200    292.75884   -1190.0539     216.7102   -973.34368     0.948762    15.303502    15.303502    15.303502            0            0            0 
  255300    304.01245   -1213.3897     225.0405   -988.34922    204.00845    15.209667    15.209667    15.209667            0            0            0 
  255400    304.82254   -1210.1279    225.64016   -984.48776   -1403.1895    15.235684    15.235684    15.235684            0            0            0 
  255500    326.36994    -1214.042    241.59029   -972.45175   -596.80945    15.156678    15.156678    15.156678            0            0            0 
  255600    298.91058   -1189.9951    221.26392   -968.73114    2849.2385    15.075816    15.075816    15.075816            0            0            0 
  255700    305.37833   -1214.7355    226.05157   -988.68396    -1122.749    15.196847    15.196847    15.196847            0            0            0 
  255800    307.97528   -1230.4499    227.97393    -1002.476    -398.8705    15.125345    15.125345    15.125345            0            0            0 
  255900    314.54545     -1224.14    232.83739   -991.30257    161.28446    15.159664    15.159664    15.159664            0            0            0 
  256000    284.35784   -1212.9792    210.49148   -1002.4877   -211.91209    15.232873    15.232873    15.232873            0            0            0 
  256100    305.72558   -1207.0553    226.30862   -980.74668    89.251263    15.297888    15.297888    15.297888            0            0            0 
  256200    295.04903    -1195.527    218.40547   -977.12158   -1619.0198    15.271261    15.271261    15.271261            0            0            0 
  256300    260.33625    -1187.475    192.70988   -994.76512     295.8396    15.061881    15.061881    15.061881            0            0            0 
  256400    285.53001   -1215.9798    211.35916   -1004.6207    696.73495    14.978715    14.978715    14.978715            0            0            0 
  256500    300.10646   -1229.5708    222.14915   -1007.4217    947.36708    14.976438    14.976438    14.976438            0            0            0 
  256600    321.26018    -1235.312    237.80787   -997.50412    607.92231    15.001455    15.001455    15.001455            0            0            0 
  256700     280.8587   -1200.2974     207.9013   -992.39609   -2932.5906     15.21401     15.21401     15.21401            0            0            0 
  256800    289.09222   -1198.0904    213.99603   -984.09435    3307.1144    15.008527    15.008527    15.008527            0            0            0 
  256900    322.76333   -1208.3085    238.92055    -969.3879    241.54636    15.179859    15.179859    15.179859            0            0            0 
  257000    310.05156   -1203.0362    229.51086   -973.52534   -543.44754    15.167203    15.167203    15.167203            0            0            0 
  257100    289.66305   -1175.3569    214.41858   -960.93835    1261.7319    15.174322    15.174322    15.174322            0            0            0 
  257200     321.3083   -1180.9905    237.84349     -943.147    81.856706    15.187231    15.187231    15.187231            0            0            0 
  257300    310.66277   -1189.1528     229.9633   -959.18947   -387.12225    15.147901    15.147901    15.147901            0            0            0 
  257400    301.89042   -1172.1003     223.4697    -948.6306    1431.8384     15.26978     15.26978     15.26978            0            0            0 
  257500    341.76052   -1195.9888    252.98292   -943.00583   -799.93571    15.248477    15.248477    15.248477            0            0            0 
  257600    308.22304   -1194.7966    228.15733   -966.63927    57.866632    15.021002    15.021002    15.021002            0            0            0 
  257700    291.31702   -1181.5279    215.64291   -965.88497   -1137.1423    14.919629    14.919629    14.919629            0            0            0 
  257800    299.60504   -1212.9871    221.77799   -991.20907    852.38105    14.822501    14.822501    14.822501            0            0            0 
  257900    302.46648   -1248.2228    223.89612   -1024.3267    38.536452    14.824341    14.824341    14.824341            0            0            0 
  258000    263.83495   -1229.8884    195.29973   -1034.5887   -1234.9411    14.863066    14.863066    14.863066            0            0            0 
  258100    285.56247   -1231.5385    211.38319   -1020.1553    3217.1254    14.685648    14.685648    14.685648            0            0            0 
  258200     306.7547   -1207.9648    227.07041   -980.89444    305.15769    14.851646    14.851646    14.851646            0            0            0 
  258300    306.15592   -1237.9015    226.62717   -1011.2744   -209.38216    14.763334    14.763334    14.763334            0            0            0 
  258400      296.841   -1224.1533    219.73195   -1004.4214     1296.564    14.678678    14.678678    14.678678            0            0            0 
  258500    308.80638   -1215.3641    228.58913   -986.77498   -2530.9381     14.82183     14.82183     14.82183            0            0            0 
  258600    301.10777   -1194.1655    222.89036   -971.27513   -1146.0739    15.012392    15.012392    15.012392            0            0            0 
  258700    350.31545   -1201.5289    259.31558   -942.21328    394.72571     14.93314     14.93314     14.93314            0            0            0 
  258800    301.54839   -1213.1486    223.21652    -989.9321    1450.7518    14.820429    14.820429    14.820429            0            0            0 
  258900    298.45095   -1186.6906    220.92369   -965.76694   -349.99199     14.92681     14.92681     14.92681            0            0            0 
  259000    306.68706   -1210.0943    227.02034   -983.07398     817.1654    14.851831    14.851831    14.851831            0            0            0 
  259100     317.7835   -1206.3182    235.23431   -971.08389     746.0737    14.880257    14.880257    14.880257            0            0            0 
  259200    287.19328   -1190.3299    212.59037   -977.73957   -1006.0582    14.971469    14.971469    14.971469            0            0            0 
  259300    329.94672   -1224.0253    244.23794   -979.78738    349.38656    14.628187    14.628187    14.628187            0            0            0 
  259400    276.42988   -1198.6902    204.62293   -994.06726    1840.8935     14.77925     14.77925     14.77925            0            0            0 
  259500    294.41096   -1201.0375    217.93315   -983.10433    -28.78624    14.990761    14.990761    14.990761            0            0            0 
  259600    303.61563   -1213.2958    224.74676   -988.54902    203.68713    15.080769    15.080769    15.080769            0            0            0 
  259700    291.96728   -1222.1295    216.12425   -1006.0052   -649.04105    15.077698    15.077698    15.077698            0            0            0 
  259800    291.89789   -1209.6225    216.07289   -993.54958   -18.861358    15.053266    15.053266    15.053266            0            0            0 
  259900    282.09514   -1219.2249    208.81656   -1010.4084     1215.837    15.027611    15.027611    15.027611            0            0            0 
  260000    282.83017   -1196.2783    209.36065   -986.91769    996.46219    15.089054    15.089054    15.089054            0            0            0 
  260100    268.22235   -1205.1466    198.54743   -1006.5992   -1554.5728    15.147862    15.147862    15.147862            0            0            0 
  260200    279.65995   -1190.0648    207.01394   -983.05087   -192.03949    14.942171    14.942171    14.942171            0            0            0 
  260300     271.0252   -1207.7169     200.6222   -1007.0947   -1276.9754     15.02617     15.02617     15.02617            0            0            0 
  260400    272.32158   -1194.4846    201.58183   -992.90277    1563.1132    14.789852    14.789852    14.789852            0            0            0 
  260500      292.961   -1191.5694    216.85984    -974.7096    1051.7764    14.909584    14.909584    14.909584            0            0            0 
  260600    309.85107   -1197.4852    229.36245   -968.12279    352.82424    15.068194    15.068194    15.068194            0            0            0 
  260700    298.76578    -1211.065    221.15674   -989.90829    238.62691    15.102852    15.102852    15.102852            0            0            0 
  260800    299.00172   -1191.6688    221.33139   -970.33746    -705.3775    15.178326    15.178326    15.178326            0            0            0 
  260900    323.20724   -1199.2633    239.24915   -960.01415    1433.4169    15.084531    15.084531    15.084531            0            0            0 
  261000    296.04827     -1184.14    219.14514   -964.99484    985.75561    15.088259    15.088259    15.088259            0            0            0 
  261100      308.604   -1200.0869    228.43933   -971.64758    1327.9883    15.037866    15.037866    15.037866            0            0            0 
  261200    288.15716   -1202.2716    213.30387   -988.96776    -113.7311     15.22563     15.22563     15.22563            0            0            0 
  261300    273.05546   -1214.1427    202.12507   -1012.0176   -411.56862    15.135773    15.135773    15.135773            0            0            0 
  261400    294.55166   -1208.4091     218.0373   -990.37182    728.27041    14.991929    14.991929    14.991929            0            0            0 
  261500    288.05773   -1213.4681    213.23027   -1000.2378    -1791.537    15.088141    15.088141    15.088141            0            0            0 
  261600     324.0608   -1209.0152    239.88099   -969.13419     2264.879    14.833723    14.833723    14.833723            0            0            0 
  261700    289.02804     -1191.42    213.94852   -977.47148   -762.45855     15.10014     15.10014     15.10014            0            0            0 
  261800    303.35076   -1208.6301    224.55069   -984.07939    1091.1629    14.941629    14.941629    14.941629            0            0            0 
  261900    270.13984   -1209.0911    199.96683   -1009.1243   -1089.6779    15.105426    15.105426    15.105426            0            0            0 
  262000    284.10468   -1200.1176    210.30408   -989.81355    24.228535    15.062184    15.062184    15.062184            0            0            0 
  262100    307.49275   -1216.3302    227.61674   -988.71349   -123.87595    15.009851    15.009851    15.009851            0            0            0 
  262200    307.92727   -1202.4869    227.93839   -974.54847      286.381    15.055861    15.055861    15.055861            0            0            0 
  262300     320.2973   -1220.5315    237.09511   -983.43634    1502.5928    15.036824    15.036824    15.036824            0            0            0 
  262400    289.79253   -1200.5338    214.51443    -986.0194    263.50231    15.145839    15.145839    15.145839            0            0            0 
  262500    296.50272   -1179.4505    219.48154   -959.96898   -391.91608    15.279109    15.279109    15.279109            0            0            0 
  262600    324.22856   -1212.2718    240.00516   -972.26668     973.3413    15.105394    15.105394    15.105394            0            0            0 
  262700    288.95607   -1207.6029    213.89525   -993.70769    2101.9673     14.92981     14.92981     14.92981            0            0            0 
  262800    305.77595   -1218.3484     226.3459    -992.0025    27.074867    15.080092    15.080092    15.080092            0            0            0 
  262900    324.75146   -1205.4966    240.39223   -965.10435   -1028.8932    15.284147    15.284147    15.284147            0            0            0 
  263000    309.32165   -1182.5102    228.97055   -953.53967    3213.9854    15.066466    15.066466    15.066466            0            0            0 
  263100     310.6807   -1191.8563    229.97657   -961.87975    1107.3397    15.139274    15.139274    15.139274            0            0            0 
  263200    288.63842   -1174.1304    213.66012    -960.4703   -1866.1272    15.328674    15.328674    15.328674            0            0            0 
  263300    299.73127   -1184.6032    221.87142   -962.73173    1333.4414    15.184128    15.184128    15.184128            0            0            0 
  263400    296.72144   -1213.3076    219.64345   -993.66413   -1063.2006    15.212648    15.212648    15.212648            0            0            0 
  263500    280.01761   -1227.0192     207.2787   -1019.7405    2111.2511    15.027613    15.027613    15.027613            0            0            0 
  263600    271.93724   -1210.7026    201.29733   -1009.4053   -1255.2246    15.240656    15.240656    15.240656            0            0            0 
  263700    283.54077   -1206.6672    209.88666   -996.78058    325.27248    15.171027    15.171027    15.171027            0            0            0 
  263800    295.29801    -1224.055    218.58977   -1005.4652    -1578.805    15.398193    15.398193    15.398193            0            0            0 
  263900     299.3719   -1202.2716    221.60541   -980.66624    809.75612    15.215706    15.215706    15.215706            0            0            0 
  264000    284.70191   -1184.5143    210.74618   -973.76817    -291.2389    15.229194    15.229194    15.229194            0            0            0 
  264100    306.50058   -1189.4534     226.8823   -962.57108   -699.66342    15.358209    15.358209    15.358209            0            0            0 
  264200     325.3602   -1160.5845    240.84284   -919.74169    2090.4754    15.218025    15.218025    15.218025            0            0            0 
  264300    311.84753   -1177.1576     230.8403   -946.31734    -526.4448    15.264839    15.264839    15.264839            0            0            0 
  264400    297.64439   -1200.9027    220.32665   -980.57601   -96.070274    15.048019    15.048019    15.048019            0            0            0 
  264500    307.22351   -1201.4477    227.41744   -974.03031    511.65541    14.934632    14.934632    14.934632            0            0            0 
  264600    291.14082   -1216.8876    215.51248   -1001.3752   -131.54981     14.85836     14.85836     14.85836            0            0            0 
  264700    303.67571   -1213.0733    224.79124   -988.28211    1444.1296    14.888394    14.888394    14.888394            0            0            0 
  264800    296.57034   -1200.3529    219.53159   -980.82133   -1302.9034    15.003445    15.003445    15.003445            0            0            0 
  264900    299.96601   -1209.9064    222.04519   -987.86124   -1600.3439    14.942906    14.942906    14.942906            0            0            0 
  265000    305.08747   -1201.8124    225.83627   -975.97613   -2258.3114    14.969734    14.969734    14.969734            0            0            0 
  265100    303.86522   -1194.0621    224.93152    -969.1306   -61.642689    14.935187    14.935187    14.935187            0            0            0 
  265200    313.45575   -1191.2731    232.03076   -959.24236   -286.18268    14.890723    14.890723    14.890723            0            0            0 
  265300    323.13212    -1212.276    239.19354   -973.08245    402.61962    14.921874    14.921874    14.921874            0            0            0 
  265400    260.90246   -1186.9461      193.129    -993.8171    -558.1067    15.026508    15.026508    15.026508            0            0            0 
  265500    308.68044   -1205.7251    228.49591   -977.22922   -497.84784    14.979871    14.979871    14.979871            0            0            0 
  265600     299.8252    -1171.086    221.94096   -949.14499   -2020.9783    15.138029    15.138029    15.138029            0            0            0 
  265700    318.66527   -1191.0513    235.88703   -955.16423    4602.0605    14.850375    14.850375    14.850375            0            0            0 
  265800    297.92456    -1215.943    220.53404   -995.40896   -2127.1149    15.128903    15.128903    15.128903            0            0            0 
  265900    286.82276   -1207.4782     212.3161   -995.16213   -1567.9828    15.248881    15.248881    15.248881            0            0            0 
  266000    281.86397   -1207.4397    208.64544   -998.79423   -1566.7759    15.243816    15.243816    15.243816            0            0            0 
  266100    303.19877   -1205.6372    224.43819   -981.19904   -74.643739    15.107251    15.107251    15.107251            0            0            0 
  266200    276.01369   -1203.6265    204.31485   -999.31162    1729.1841    15.022729    15.022729    15.022729            0            0            0 
  266300    272.69268    -1200.447    201.85653   -998.59044    668.28661    15.080228    15.080228    15.080228            0            0            0 
  266400    307.67625   -1213.9267    227.75257   -986.17412    1778.7974    14.960386    14.960386    14.960386            0            0            0 
  266500    311.69049   -1222.6354    230.72406   -991.91133   -568.76296     15.16938     15.16938     15.16938            0            0            0 
  266600    303.01651   -1218.3054    224.30327   -994.00217    851.28429    15.004087    15.004087    15.004087            0            0            0 
  266700    291.67152    -1214.016    215.90532   -998.11067   -1321.4088    14.985113    14.985113    14.985113            0            0            0 
  266800    320.05729   -1228.1397    236.91744   -991.22228    2036.0673    14.761551    14.761551    14.761551            0            0            0 
  266900    291.08554   -1207.6209    215.47156   -992.14937    250.43788    14.978399    14.978399    14.978399            0            0            0 
  267000    276.29971   -1206.8805    204.52658   -1002.3539    460.96266    15.052092    15.052092    15.052092            0            0            0 
  267100    293.38735   -1205.3542    217.17544   -988.17881    1542.2344    14.907784    14.907784    14.907784            0            0            0 
  267200    295.03257   -1214.2363    218.39329   -995.84298    715.56592    14.843997    14.843997    14.843997            0            0            0 
  267300     301.5629   -1217.4566    223.22726   -994.22935     440.2706    14.877269    14.877269    14.877269            0            0            0 
  267400    311.07494   -1197.4535     230.2684   -967.18511   -83.578708    15.019094    15.019094    15.019094            0            0            0 
  267500    304.99349   -1191.6601     225.7667   -965.89341    -747.5658    15.098965    15.098965    15.098965            0            0            0 
  267600    267.87562   -1204.2914    198.29077   -1006.0006   -708.80874    15.086228    15.086228    15.086228            0            0            0 
  267700    325.22079   -1207.1591    240.73965   -966.41944    1854.8154    14.890583    14.890583    14.890583            0            0            0 
  267800     298.7025   -1190.2084    221.10989    -969.0985   -1955.3803    15.070486    15.070486    15.070486            0            0            0 
  267900     295.1731   -1200.2618    218.49731   -981.76448   -611.29182     15.01651     15.01651     15.01651            0            0            0 
  268000    290.83974    -1217.929    215.28961   -1002.6394   -117.56536    14.853338    14.853338    14.853338            0            0            0 
  268100    282.04717   -1174.5359    208.78105   -965.75486   -698.80388    15.099697    15.099697    15.099697            0            0            0 
  268200    296.29921   -1190.4933     219.3309   -971.16244    1289.9282    15.047251    15.047251    15.047251            0            0            0 
  268300    330.38773   -1220.7559     244.5644   -976.19147   -1764.5696    15.195163    15.195163    15.195163            0            0            0 
  268400    295.80402   -1179.4439    218.96434   -960.47952    1961.2804    15.110115    15.110115    15.110115            0            0            0 
  268500    301.37196   -1209.7176    223.08592   -986.63169   -765.10006    15.134375    15.134375    15.134375            0            0            0 
  268600    304.87709   -1200.5006    225.68054   -974.82003    1811.1368    14.941776    14.941776    14.941776            0            0            0 
  268700    260.97945   -1200.3922    193.18599   -1007.2062   -747.76723    15.022772    15.022772    15.022772            0            0            0 
  268800    307.54864   -1206.9853    227.65811   -979.32721   -174.62643    15.031559    15.031559    15.031559            0            0            0 
  268900    309.34944   -1209.4703    228.99113   -980.47921    1349.1785    14.850851    14.850851    14.850851            0            0            0 
  269000    315.06076   -1226.8052    233.21884   -993.58639    649.34266    14.777655    14.777655    14.777655            0            0            0 
  269100    284.72955   -1212.1365    210.76664   -1001.3699   -3106.4853    15.119192    15.119192    15.119192            0            0            0 
  269200     298.5728   -1212.3005    221.01389   -991.28658    300.57719    15.047899    15.047899    15.047899            0            0            0 
  269300    285.91568   -1214.1979    211.64465   -1002.5533   -3750.9251    15.212505    15.212505    15.212505            0            0            0 
  269400    329.24478   -1225.1797    243.71834   -981.46135    1693.6028    14.797744    14.797744    14.797744            0            0            0 
  269500    282.00819    -1220.231    208.75219   -1011.4788    -451.9768    14.872382    14.872382    14.872382            0            0            0 
  269600    290.39873   -1245.3707    214.96316   -1030.4075   -564.81185    14.941825    14.941825    14.941825            0            0            0 
  269700     290.2133   -1209.0345    214.82589    -994.2086    287.38822    15.008904    15.008904    15.008904            0            0            0 
  269800     287.4655   -1209.8408    212.79188    -997.0489   -174.38237    14.908639    14.908639    14.908639            0            0            0 
  269900    296.68017   -1226.5667    219.61289   -1006.9538   -121.37681    14.766104    14.766104    14.766104            0            0            0 
  270000    281.69388   -1233.1844    208.51952   -1024.6648   -1184.1799    14.787044    14.787044    14.787044            0            0            0 
  270100    292.86094   -1234.2995    216.78577   -1017.5137   -832.60077    14.876079    14.876079    14.876079            0            0            0 
  270200    281.71557   -1231.9777    208.53558   -1023.4421   -1439.7717    14.922215    14.922215    14.922215            0            0            0 
  270300    285.80987   -1227.6288    211.56633   -1016.0625    927.62485    14.714171    14.714171    14.714171            0            0            0 
  270400    287.74024   -1232.8767    212.99525   -1019.8814    -231.1589    14.760087    14.760087    14.760087            0            0            0 
  270500    318.55668   -1232.0548    235.80664   -996.24819   -3047.8749    15.026833    15.026833    15.026833            0            0            0 
  270600    332.17662   -1202.0488     245.8886   -956.16016   -347.71291    14.889798    14.889798    14.889798            0            0            0 
  270700    300.82847   -1158.9087    222.68361   -936.22507   -379.10533    15.099548    15.099548    15.099548            0            0            0 
  270800    301.33732   -1195.0247    223.06028   -971.96438   -1704.4632    14.963454    14.963454    14.963454            0            0            0 
  270900    289.63232   -1202.2676    214.39584   -987.87176    -731.2287    14.892957    14.892957    14.892957            0            0            0 
  271000    302.81333   -1186.8477    224.15287   -962.69484   -356.75477    14.993242    14.993242    14.993242            0            0            0 
  271100    303.44645   -1186.0588    224.62153   -961.43724   -1094.6537    15.103702    15.103702    15.103702            0            0            0 
  271200    308.11995    -1174.429    228.08102   -946.34794    3587.9167    14.829508    14.829508    14.829508            0            0            0 
  271300    322.14664   -1206.3772    238.46406   -967.91313    763.82404    14.830825    14.830825    14.830825            0            0            0 
  271400    312.11303   -1214.5489    231.03683   -983.51204    139.37105     14.91249     14.91249     14.91249            0            0            0 
  271500    285.30098    -1196.562    211.18963   -985.37239   -636.75211    14.983539    14.983539    14.983539            0            0            0 
  271600    327.78927   -1204.1304    242.64093   -961.48943    1093.3959    14.937819    14.937819    14.937819            0            0            0 
  271700    323.29015   -1213.6968    239.31052    -974.3863   -1669.3649    15.244481    15.244481    15.244481            0            0            0 
  271800    307.56172   -1198.1168     227.6678     -970.449   -202.64482    15.187477    15.187477    15.187477            0            0            0 
  271900    297.66032   -1204.9676    220.33843   -984.62914   -2097.2963    15.096408    15.096408    15.096408            0            0            0 
  272000    283.84399   -1206.4567    210.11111   -996.34559   -949.43707    15.134477    15.134477    15.134477            0            0            0 
  272100    311.13533   -1198.5513     230.3131   -968.23816    465.40817    15.205211    15.205211    15.205211            0            0            0 
  272200    317.42561   -1195.6933    234.96938   -960.72394    1694.4525    15.001517    15.001517    15.001517            0            0            0 
  272300    298.93909   -1219.0571    221.28503   -997.77211   -933.76297    14.970003    14.970003    14.970003            0            0            0 
  272400    283.23511    -1189.293     209.6604   -979.63257   -1189.3624    14.943346    14.943346    14.943346            0            0            0 
  272500    321.88902   -1187.1916    238.27336   -948.91824    2072.8269    14.881769    14.881769    14.881769            0            0            0 
  272600    323.68782   -1185.4704    239.60489   -945.86546    1130.6274     14.92722     14.92722     14.92722            0            0            0 
  272700    303.52049   -1186.4453    224.67634   -961.76895    2041.6393    14.989459    14.989459    14.989459            0            0            0 
  272800    288.47864   -1197.8773    213.54184   -984.33548   -765.77698    15.104061    15.104061    15.104061            0            0            0 
  272900    301.82868   -1216.3475      223.424   -992.92352   -1753.8807    15.006877    15.006877    15.006877            0            0            0 
  273000    295.23642   -1235.3652    218.54419    -1016.821    559.12722    14.791032    14.791032    14.791032            0            0            0 
  273100    300.73128   -1209.0794    222.61167   -986.46772   -569.20632    14.972852    14.972852    14.972852            0            0            0 
  273200    304.09568    -1228.048    225.10211   -1002.9459    238.24618    14.878106    14.878106    14.878106            0            0            0 
  273300     306.0679    -1239.709    226.56202   -1013.1469    249.40092    14.731437    14.731437    14.731437            0            0            0 
  273400    304.39545   -1231.0659    225.32402   -1005.7419    -41.47052    14.712193    14.712193    14.712193            0            0            0 
  273500    300.89931   -1237.5429    222.73605   -1014.8068   -26.986189    14.743397    14.743397    14.743397            0            0            0 
  273600    274.50375   -1230.0829    203.19714   -1026.8858     -1081.42    14.846118    14.846118    14.846118            0            0            0 
  273700    294.44387   -1225.2878    217.95751   -1007.3303     1628.475    14.756929    14.756929    14.756929            0            0            0 
  273800    308.91757   -1255.4347    228.67144   -1026.7633   -547.50572    14.672764    14.672764    14.672764            0            0            0 
  273900    259.90699   -1202.9536    192.39212   -1010.5615    -1147.433    14.844218    14.844218    14.844218            0            0            0 
  274000    289.33299   -1210.1414    214.17426   -995.96715    1539.9738    14.961293    14.961293    14.961293            0            0            0 
  274100     298.8847   -1250.2057    221.24476   -1028.9609    450.54883    14.871756    14.871756    14.871756            0            0            0 
  274200    300.60801   -1240.8778    222.52042   -1018.3574    483.87174    14.823998    14.823998    14.823998            0            0            0 
  274300    302.66007    -1222.551    224.03943   -998.51155    1776.6414    14.845891    14.845891    14.845891            0            0            0 
  274400    284.12872   -1219.0672    210.32188   -1008.7453   -1202.6882    15.090713    15.090713    15.090713            0            0            0 
  274500    311.59389   -1210.4666    230.65255    -979.8141   -101.50256    15.035431    15.035431    15.035431            0            0            0 
  274600    310.35848   -1221.6922    229.73805   -991.95417   -1940.7887    14.940215    14.940215    14.940215            0            0            0 
  274700    298.24424   -1207.4436    220.77067   -986.67297    2556.7053    14.755182    14.755182    14.755182            0            0            0 
  274800    280.03351   -1192.6982    207.29046   -985.40773   -1641.3647    15.013783    15.013783    15.013783            0            0            0 
  274900    290.52044   -1223.9786    215.05325   -1008.9253    1170.7667    14.771005    14.771005    14.771005            0            0            0 
  275000    286.27107    -1217.453    211.90772   -1005.5453   -117.68823    14.936502    14.936502    14.936502            0            0            0 
  275100    273.27005   -1190.0211    202.28392   -987.73722   -1297.1337    14.951333    14.951333    14.951333            0            0            0 
  275200    298.15226   -1204.9332    220.70259   -984.23062    1368.5595    14.902589    14.902589    14.902589            0            0            0 
  275300    286.60734   -1193.7721    212.15664   -981.61546    582.01572    15.023633    15.023633    15.023633            0            0            0 
  275400    318.56175   -1182.2931     235.8104   -946.48267   -192.89969    15.039155    15.039155    15.039155            0            0            0 
  275500    312.30806   -1195.3991     231.1812   -964.21787   -1428.3741    15.117097    15.117097    15.117097            0            0            0 
  275600    315.05465   -1187.0272    233.21432   -953.81292   -140.16616    15.037139    15.037139    15.037139            0            0            0 
  275700    312.65825    -1172.071    231.44042   -940.63062   -796.17039    15.083507    15.083507    15.083507            0            0            0 
  275800    316.62297   -1196.2912    234.37525   -961.91593   -533.93867    15.040298    15.040298    15.040298            0            0            0 
  275900    309.65913   -1196.9883    229.22037   -967.76795    1309.4785    14.863246    14.863246    14.863246            0            0            0 
  276000    309.24012   -1218.7386     228.9102   -989.82843     -1636.94    15.017404    15.017404    15.017404            0            0            0 
  276100    295.45698   -1222.4059    218.70745   -1003.6984    299.64579    14.887184    14.887184    14.887184            0            0            0 
  276200    284.45851   -1215.2496      210.566   -1004.6836   -902.91062    14.869469    14.869469    14.869469            0            0            0 
  276300    294.49393   -1190.4332    217.99457    -972.4386   -393.08885    15.059091    15.059091    15.059091            0            0            0 
  276400    296.66351   -1221.7771    219.60057   -1002.1765    440.67891    14.996679    14.996679    14.996679            0            0            0 
  276500     281.2541   -1213.9831    208.19399   -1005.7891   -367.93509    14.977299    14.977299    14.977299            0            0            0 
  276600     309.3832   -1207.4409    229.01612   -978.42478    443.04306    14.880501    14.880501    14.880501            0            0            0 
  276700    310.01027   -1223.0313     229.4803   -993.55105     288.3461     14.82896     14.82896     14.82896            0            0            0 
  276800     297.2147   -1218.0516    220.00857   -998.04307    1125.1557    14.760355    14.760355    14.760355            0            0            0 
  276900    312.10454   -1193.1258    231.03055   -962.09523   -2676.8562    15.128492    15.128492    15.128492            0            0            0 
  277000    316.96301   -1204.6966    234.62696   -970.06961    2017.3208    14.847616    14.847616    14.847616            0            0            0 
  277100    298.27748   -1196.7113    220.79528   -975.91603    -2447.758       15.036       15.036       15.036            0            0            0 
  277200    309.12463   -1223.8487    228.82472   -995.02399    1237.0663    14.718004    14.718004    14.718004            0            0            0 
  277300    290.81994   -1222.6351    215.27495   -1007.3602    1002.6786    14.885045    14.885045    14.885045            0            0            0 
  277400    279.54414   -1185.7911    206.92822   -978.86286    364.42643    14.967957    14.967957    14.967957            0            0            0 
  277500    305.96853   -1206.8776    226.48846   -980.38915   -392.28558    14.972803    14.972803    14.972803            0            0            0 
  277600    305.36814   -1193.2566    226.04403   -967.21256    582.22749     15.00036     15.00036     15.00036            0            0            0 
  277700    302.86743    -1191.582    224.19292   -967.38909     1350.075     14.81426     14.81426     14.81426            0            0            0 
  277800    333.47002   -1195.7174    246.84601    -948.8714   -1510.0398    14.949205    14.949205    14.949205            0            0            0 
  277900    299.30836   -1204.6536    221.55837   -983.09522   -1546.5316    15.007072    15.007072    15.007072            0            0            0 
  278000    287.32729   -1210.0271    212.68957   -997.33757   -738.77697     14.97284     14.97284     14.97284            0            0            0 
  278100    276.26644   -1189.0472    204.50195   -984.54521     2210.993    14.972213    14.972213    14.972213            0            0            0 
  278200     326.2793    -1214.402     241.5232   -972.87881    705.48551    15.189136    15.189136    15.189136            0            0            0 
  278300    280.48772   -1218.7319    207.62669   -1011.1052    204.65222    15.097296    15.097296    15.097296            0            0            0 
  278400    309.40374   -1219.2751    229.03132   -990.24375   -1703.0837    15.142105    15.142105    15.142105            0            0            0 
  278500    303.84038   -1214.6802    224.91313   -989.76703    1438.1859    14.901652    14.901652    14.901652            0            0            0 
  278600    293.78026   -1193.5542    217.46628    -976.0879   -2449.0519    15.097004    15.097004    15.097004            0            0            0 
  278700    276.25218   -1250.0253    204.49139   -1045.5339    1455.6777    14.683345    14.683345    14.683345            0            0            0 
  278800    317.63465   -1239.0657    235.12413   -1003.9416   -2142.7072     14.84226     14.84226     14.84226            0            0            0 
  278900    290.43723   -1233.2979    214.99166   -1018.3063   -894.18351    14.925291    14.925291    14.925291            0            0            0 
  279000    302.76514   -1221.3891     224.1172   -997.27187     6.956772    14.904319    14.904319    14.904319            0            0            0 
  279100    294.80127   -1220.5275    218.22207   -1002.3055    1781.1866    14.768306    14.768306    14.768306            0            0            0 
  279200    277.03319   -1198.1879    205.06952   -993.11836   -1382.2539     14.97326     14.97326     14.97326            0            0            0 
  279300    328.86047   -1216.2883    243.43387   -972.85442    1012.4856    14.932758    14.932758    14.932758            0            0            0 
  279400    309.93641   -1215.7289    229.42562   -986.30324    834.48227    14.937423    14.937423    14.937423            0            0            0 
  279500    280.67247   -1188.5592    207.76344   -980.79576   -500.50676     15.12023     15.12023     15.12023            0            0            0 
  279600    318.67643   -1183.1217    235.89529   -947.22644    728.78124    15.044596    15.044596    15.044596            0            0            0 
  279700    323.66483   -1202.0908    239.58787   -962.50293    580.40834     15.01306     15.01306     15.01306            0            0            0 
  279800    305.73788   -1184.1256    226.31772   -957.80786   -737.22381    15.221643    15.221643    15.221643            0            0            0 
  279900    292.38176   -1181.0964    216.43106   -964.66533    375.22872    15.205844    15.205844    15.205844            0            0            0 
  280000    284.40758   -1206.6116     210.5283   -996.08334   -425.79956    15.182599    15.182599    15.182599            0            0            0 
  280100    299.18945   -1205.2974    221.47035   -983.82708   -1100.6431    15.128997    15.128997    15.128997            0            0            0 
  280200    281.08477   -1194.9541    208.06864   -986.88545   -229.58401    15.061429    15.061429    15.061429            0            0            0 
  280300    277.53541   -1215.8273    205.44129    -1010.386   -771.75862     15.05186     15.05186     15.05186            0            0            0 
  280400    285.40932   -1222.8127    211.26982   -1011.5429   -130.30362    14.941934    14.941934    14.941934            0            0            0 
  280500    303.26703   -1201.5514    224.48872   -977.06273    1634.5129    14.924197    14.924197    14.924197            0            0            0 
  280600     307.6053   -1200.0908    227.70005   -972.39076    107.84155    14.914882    14.914882    14.914882            0            0            0 
  280700    311.45417   -1207.7007    230.54912   -977.15161   -685.80177    15.002583    15.002583    15.002583            0            0            0 
  280800    275.35017   -1176.8786    203.82369   -973.05492    122.89396    14.994405    14.994405    14.994405            0            0            0 
  280900    291.94141   -1188.1631     216.1051     -972.058    2116.1271    14.893177    14.893177    14.893177            0            0            0 
  281000    312.15615   -1202.7373    231.06875   -971.66854   -150.51537    15.055385    15.055385    15.055385            0            0            0 
  281100    300.39398   -1192.1151    222.36199   -969.75313    136.19712    15.018941    15.018941    15.018941            0            0            0 
  281200    300.21057   -1214.5848    222.22622   -992.35861   -1796.2661    15.093122    15.093122    15.093122            0            0            0 
  281300    291.88095   -1188.2586    216.06035   -972.19828    -1316.378    14.999584    14.999584    14.999584            0            0            0 
  281400    311.33184   -1204.1744    230.45856   -973.71584    974.17272    14.974597    14.974597    14.974597            0            0            0 
  281500    296.16786   -1187.7182    219.23367   -968.48454   -98.641862    14.936008    14.936008    14.936008            0            0            0 
  281600    324.20519   -1205.5409    239.98786     -965.553   -538.71441    14.922975    14.922975    14.922975            0            0            0 
  281700    301.37142   -1180.3573    223.08552   -957.27178   -1088.8689    15.082498    15.082498    15.082498            0            0            0 
  281800    286.96291    -1200.774    212.41984   -988.35416    324.00372    14.892209    14.892209    14.892209            0            0            0 
  281900    289.90261   -1227.9119    214.59591    -1013.316    793.77311    14.859432    14.859432    14.859432            0            0            0 
  282000    271.24433   -1216.8499    200.78441   -1016.0655   -931.11618    14.987335    14.987335    14.987335            0            0            0 
  282100    306.57421    -1232.794     226.9368   -1005.8572    490.75415    14.835054    14.835054    14.835054            0            0            0 
  282200    310.16294   -1202.5205    229.59331    -972.9272   -511.76672    14.949397    14.949397    14.949397            0            0            0 
  282300    297.04813   -1193.7466    219.88528   -973.86128    235.68931    15.052233    15.052233    15.052233            0            0            0 
  282400    292.74637   -1199.3208    216.70096   -982.61986   -406.43358    15.026514    15.026514    15.026514            0            0            0 
  282500    319.90719   -1211.3933    236.80633   -974.58693     816.6964    14.940511    14.940511    14.940511            0            0            0 
  282600    290.45369   -1196.0586    215.00384   -981.05479    -2299.778    15.058094    15.058094    15.058094            0            0            0 
  282700    297.70483   -1208.8457    220.37139   -988.47431   -340.31063    14.904566    14.904566    14.904566            0            0            0 
  282800    275.97923   -1216.1553    204.28934    -1011.866    44.633001    14.894397    14.894397    14.894397            0            0            0 
  282900    290.27428    -1208.326    214.87103   -993.45494   -2065.2263    14.985123    14.985123    14.985123            0            0            0 
  283000    295.47381   -1218.0538    218.71991   -999.33389    641.16855    14.755798    14.755798    14.755798            0            0            0 
  283100    284.50965   -1192.4898    210.60386   -981.88594   -408.17641    14.797162    14.797162    14.797162            0            0            0 
  283200    299.79556     -1226.79    221.91902   -1004.8709    340.97562    14.804768    14.804768    14.804768            0            0            0 
  283300    315.31544   -1214.5121    233.40736   -981.10478   -1622.5742    15.089479    15.089479    15.089479            0            0            0 
  283400    311.47581   -1193.4894    230.56514   -962.92427   -960.55915    14.984197    14.984197    14.984197            0            0            0 
  283500    310.58003   -1170.7023    229.90205   -940.80026   -692.37922    14.844542    14.844542    14.844542            0            0            0 
  283600    295.18973   -1186.9265    218.50962   -968.41686    1373.1657    14.867405    14.867405    14.867405            0            0            0 
  283700    306.33911   -1177.8491    226.76278    -951.0863   -853.09251    15.099222    15.099222    15.099222            0            0            0 
  283800    298.54898   -1171.7014    220.99625   -950.70511   -29.737426    15.176923    15.176923    15.176923            0            0            0 
  283900    296.28959    -1175.229    219.32378   -955.90525   -228.55517    15.181414    15.181414    15.181414            0            0            0 
  284000    272.58195   -1183.2477    201.77456   -981.47312    1470.4569    15.107129    15.107129    15.107129            0            0            0 
  284100    298.84319   -1195.4132    221.21404   -974.19919   -615.01939    15.121543    15.121543    15.121543            0            0            0 
  284200    307.36453   -1214.6763    227.52183   -987.15451   -876.48729    15.079127    15.079127    15.079127            0            0            0 
  284300      272.813   -1194.7075     201.9456   -992.76187     363.3986    15.125635    15.125635    15.125635            0            0            0 
  284400    311.12994   -1189.2915    230.30912   -958.98242    1504.9824    15.180021    15.180021    15.180021            0            0            0 
  284500    295.06543   -1182.3902    218.41761   -963.97258   -472.80466    15.237984    15.237984    15.237984            0            0            0 
  284600    322.26182    -1216.801    238.54931   -978.25171    714.06075    14.969251    14.969251    14.969251            0            0            0 
  284700    324.94857   -1201.1456    240.53814   -960.60743   -1426.6479    14.987671    14.987671    14.987671            0            0            0 
  284800    309.77228   -1206.6916    229.30413   -977.38748    757.37102    14.906358    14.906358    14.906358            0            0            0 
  284900    321.44225   -1204.7403    237.94264   -966.79771    1486.9691    14.862968    14.862968    14.862968            0            0            0 
  285000    311.44165   -1203.5951    230.53985   -973.05524   -1744.6602    15.006974    15.006974    15.006974            0            0            0 
  285100    331.74981   -1231.4768    245.57265   -985.90417   -337.56528    14.779473    14.779473    14.779473            0            0            0 
  285200    302.34713   -1217.0483    223.80778   -993.24055   -379.83558    14.859734    14.859734    14.859734            0            0            0 
  285300    278.30023   -1201.6039    206.00743   -995.59649   -1495.6928    15.205815    15.205815    15.205815            0            0            0 
  285400    317.58949   -1225.4054     235.0907   -990.31473    1091.7355    15.075204    15.075204    15.075204            0            0            0 
  285500    302.50248   -1236.8515    223.92277   -1012.9287    1060.6849    14.739895    14.739895    14.739895            0            0            0 
  285600    284.49371   -1221.7282    210.59206   -1011.1361   -9.2854449    14.796056    14.796056    14.796056            0            0            0 
  285700    291.13743   -1222.0463    215.50997   -1006.5364   -1114.6444    14.866494    14.866494    14.866494            0            0            0 
  285800     300.0216   -1231.3683    222.08634   -1009.2819   -119.20023    14.829601    14.829601    14.829601            0            0            0 
  285900    288.49585   -1233.5441    213.55458   -1019.9895    430.65353    14.787089    14.787089    14.787089            0            0            0 
  286000    274.82014   -1217.4308    203.43134   -1013.9994   -3318.5818    15.038538    15.038538    15.038538            0            0            0 
  286100    286.39417   -1221.6168    211.99884   -1009.6179    1268.7658     14.81109     14.81109     14.81109            0            0            0 
  286200    293.31163   -1197.9129    217.11938   -980.79347   -202.18557    15.056221    15.056221    15.056221            0            0            0 
  286300      284.638   -1216.9261    210.69887   -1006.2272   -862.48198    15.043996    15.043996    15.043996            0            0            0 
  286400    305.85921   -1207.3843    226.40754   -980.97673   -59.278043    14.859462    14.859462    14.859462            0            0            0 
  286500    318.10298   -1221.4138     235.4708   -985.94296     716.2668    14.790717    14.790717    14.790717            0            0            0 
  286600    286.69216   -1209.5606    212.21943   -997.34117    449.17175    14.858865    14.858865    14.858865            0            0            0 
  286700    274.84555   -1173.4714    203.45016    -970.0212    788.01256     14.88535     14.88535     14.88535            0            0            0 
  286800    310.62931   -1189.1176    229.93853   -959.17904    560.10993    14.901506    14.901506    14.901506            0            0            0 
  286900    297.55568   -1200.5591    220.26098   -980.29813   -1058.3522    15.025587    15.025587    15.025587            0            0            0 
  287000    309.28492   -1200.1748    228.94337   -971.23143    683.90068    15.101199    15.101199    15.101199            0            0            0 
  287100    297.32268   -1183.1256     220.0885   -963.03714   -1103.0438    15.335962    15.335962    15.335962            0            0            0 
  287200    305.30354   -1199.0032    225.99622     -973.007    2063.4906    15.019468    15.019468    15.019468            0            0            0 
  287300    302.28838   -1213.4362    223.76429   -989.67193   -1620.1228    15.004901    15.004901    15.004901            0            0            0 
  287400    288.49683     -1202.93     213.5553   -989.37471    2962.7105     14.97029     14.97029     14.97029            0            0            0 
  287500    293.59875     -1225.88    217.33192    -1008.548    -381.1768    15.050114    15.050114    15.050114            0            0            0 
  287600    315.00781   -1225.9535    233.17965   -992.77388   -1088.5575    15.084582    15.084582    15.084582            0            0            0 
  287700    267.02004   -1231.4565    197.65744    -1033.799    146.69198    14.910413    14.910413    14.910413            0            0            0 
  287800    300.44366   -1227.4759    222.39876   -1005.0772   -670.50012    14.875576    14.875576    14.875576            0            0            0 
  287900    314.97014   -1212.5598    233.15176   -979.40802   -425.57887    14.965831    14.965831    14.965831            0            0            0 
  288000    306.69917   -1211.6367     227.0293    -984.6074    271.53118    14.946147    14.946147    14.946147            0            0            0 
  288100    293.55186   -1227.4218    217.29721   -1010.1246    970.00508    14.880507    14.880507    14.880507            0            0            0 
  288200     306.5601   -1196.3893    226.92636    -969.4629    2162.8084    15.022623    15.022623    15.022623            0            0            0 
  288300    287.22967    -1191.576    212.61731   -978.95868    122.98877    15.087218    15.087218    15.087218            0            0            0 
  288400    262.14813   -1209.3024    194.05109   -1015.2513    190.69772    15.196029    15.196029    15.196029            0            0            0 
  288500    309.76868   -1223.1283    229.30147   -993.82687    232.15366    15.255501    15.255501    15.255501            0            0            0 
  288600    295.47093   -1217.3334    218.71777   -998.61565    846.52449    15.121872    15.121872    15.121872            0            0            0 
  288700    317.59291   -1189.8481    235.09323   -954.75491    279.93709    15.074798    15.074798    15.074798            0            0            0 
  288800    300.44734   -1183.2406    222.40148   -960.83916    34.295568    15.149277    15.149277    15.149277            0            0            0 
  288900    300.57825   -1177.4892    222.49839   -954.99076   -583.91093    15.232185    15.232185    15.232185            0            0            0 
  289000    292.23887   -1173.8148    216.32529   -957.48951    1077.2205    14.994265    14.994265    14.994265            0            0            0 
  289100    309.17296   -1181.3974    228.86049   -952.53689   -137.73766    15.047061    15.047061    15.047061            0            0            0 
  289200    303.67244   -1205.0009    224.78882   -980.21208   -1192.5735    15.049871    15.049871    15.049871            0            0            0 
  289300    292.40228   -1203.6349    216.44626   -987.18859   -177.39885    14.925932    14.925932    14.925932            0            0            0 
  289400    283.52918   -1217.9575    209.87808   -1008.0794   -1728.5381    15.053909    15.053909    15.053909            0            0            0 
  289500    308.75743   -1212.0473     228.5529   -983.49442   -1317.2453    14.879978    14.879978    14.879978            0            0            0 
  289600    301.67563   -1205.0887    223.31071   -981.77804    474.26363    14.838054    14.838054    14.838054            0            0            0 
  289700    265.60911   -1206.5502    196.61303   -1009.9372    1446.1632    14.880415    14.880415    14.880415            0            0            0 
  289800    282.22553   -1216.1481    208.91307   -1007.2351   -2261.6272    15.080082    15.080082    15.080082            0            0            0 
  289900    312.41803   -1230.2409     231.2626   -998.97826   -469.54939    14.945318    14.945318    14.945318            0            0            0 
  290000    295.20628   -1190.6101    218.52187   -972.08821    542.68272    14.979436    14.979436    14.979436            0            0            0 
  290100     312.4485   -1175.9195    231.28515   -944.63439   -351.39826    15.053105    15.053105    15.053105            0            0            0 
  290200    302.41094   -1171.9512    223.85501   -948.09614    1121.7899      14.9924      14.9924      14.9924            0            0            0 
  290300    338.05836   -1194.6451    250.24246   -944.40266    -526.0881     15.13484     15.13484     15.13484            0            0            0 
  290400     318.4939   -1221.4225    235.76017   -985.66229    -742.9011    14.967298    14.967298    14.967298            0            0            0 
  290500     298.2343   -1213.4148    220.76332   -992.65148   -80.368668    14.894614    14.894614    14.894614            0            0            0 
  290600    281.34083   -1200.4306    208.25819   -992.17239    -3413.292    15.219559    15.219559    15.219559            0            0            0 
  290700    302.55695   -1201.6595    223.96309   -977.69636    1666.5492    15.029689    15.029689    15.029689            0            0            0 
  290800    280.84332     -1196.07    207.88991   -988.18007   -243.35186    15.102751    15.102751    15.102751            0            0            0 
  290900    273.97642   -1220.1042     202.8068   -1017.2974   -317.16528    14.938551    14.938551    14.938551            0            0            0 
  291000    297.25239   -1222.2843    220.03647   -1002.2478    307.91523     14.91655     14.91655     14.91655            0            0            0 
  291100    311.33939   -1211.5453    230.46416   -981.08114    1331.9722    14.967971    14.967971    14.967971            0            0            0 
  291200    284.10081   -1214.9054    210.30122   -1004.6041    326.28068    14.984233    14.984233    14.984233            0            0            0 
  291300    302.58066   -1222.0385    223.98064   -998.05783    1512.0916    14.804698    14.804698    14.804698            0            0            0 
  291400    307.74927   -1206.3501    227.80663   -978.54348    404.04599    14.820073    14.820073    14.820073            0            0            0 
  291500    295.09875   -1228.8094    218.44227   -1010.3671   -1258.6549    14.931967    14.931967    14.931967            0            0            0 
  291600    308.68671   -1254.4353    228.50055   -1025.9348   -385.23808    14.866561    14.866561    14.866561            0            0            0 
  291700     296.5307   -1221.8263    219.50225   -1002.3241   -834.69382    14.936072    14.936072    14.936072            0            0            0 
  291800    261.72023    -1205.432    193.73435   -1011.6976   -178.88213     14.86065     14.86065     14.86065            0            0            0 
  291900    293.36013   -1222.2333    217.15529    -1005.078    358.71686    14.746999    14.746999    14.746999            0            0            0 
  292000    298.29404   -1196.7499    220.80754   -975.94238    549.46568    14.858248    14.858248    14.858248            0            0            0 
  292100    280.90211   -1206.4294    207.93344   -998.49597    905.09316    14.874903    14.874903    14.874903            0            0            0 
  292200    291.49874   -1216.5222    215.77742   -1000.7448   -141.63032    14.847152    14.847152    14.847152            0            0            0 
  292300    298.91786   -1231.5081    221.26931   -1010.2388   -55.124699    14.887319    14.887319    14.887319            0            0            0 
  292400     318.1918   -1233.8113    235.53655    -998.2747    326.79717     14.91513     14.91513     14.91513            0            0            0 
  292500    287.48894   -1194.2832    212.80923   -981.47394    2336.9312    14.990747    14.990747    14.990747            0            0            0 
  292600    307.52475   -1212.5024    227.64042   -984.86195   -92.281324    15.084312    15.084312    15.084312            0            0            0 
  292700    302.59385   -1197.7244    223.99041   -973.73403    1654.2864    15.002573    15.002573    15.002573            0            0            0 
  292800    290.02485   -1195.8346     214.6864   -981.14823   -1100.1867    15.060366    15.060366    15.060366            0            0            0 
  292900    319.21636   -1214.6571    236.29496   -978.36215    1885.3129    14.779959    14.779959    14.779959            0            0            0 
  293000    265.80205   -1215.3299    196.75585   -1018.5741   -930.30299    14.853749    14.853749    14.853749            0            0            0 
  293100    297.33686   -1219.8613      220.099   -999.76231    821.31821    14.716605    14.716605    14.716605            0            0            0 
  293200    299.22461   -1223.7331    221.49638   -1002.2367   -586.26474    14.863036    14.863036    14.863036            0            0            0 
  293300    297.83055   -1225.3026    220.46445   -1004.8382   -979.85381     14.88907     14.88907     14.88907            0            0            0 
  293400    312.12062   -1201.3657    231.04245   -970.32327    4170.2656    14.705796    14.705796    14.705796            0            0            0 
  293500    317.17454   -1188.0514    234.78353   -953.26785   -1565.7169    15.170762    15.170762    15.170762            0            0            0 
  293600    329.04665   -1195.0467    243.57168   -951.47504   -1255.5771    15.241491    15.241491    15.241491            0            0            0 
  293700     305.7916   -1195.6395    226.35749   -969.28202   -207.48803    15.130469    15.130469    15.130469            0            0            0 
  293800    279.03119   -1208.0146    206.54851   -1001.4661    733.97833    15.041396    15.041396    15.041396            0            0            0 
  293900     317.3076   -1206.3272    234.88203   -971.44519   -579.60692    15.091043    15.091043    15.091043            0            0            0 
  294000      319.464   -1207.4017    236.47827   -970.92339    46.593644    15.085057    15.085057    15.085057            0            0            0 
  294100    294.83593   -1164.5256    218.24773   -946.27789    7.0855706    15.109988    15.109988    15.109988            0            0            0 
  294200    337.97214   -1217.7042    250.17864   -967.52558   -142.76175    14.906034    14.906034    14.906034            0            0            0 
  294300    265.32444     -1192.86     196.4023   -996.45765    956.75866    14.900592    14.900592    14.900592            0            0            0 
  294400     328.2746   -1211.2984    243.00018   -968.29824    2032.6461    14.786515    14.786515    14.786515            0            0            0 
  294500    306.80698     -1202.33    227.10911    -975.2209   -969.31999    15.048723    15.048723    15.048723            0            0            0 
  294600     273.7882   -1190.0101    202.66747   -987.34262   -1068.5177    15.160815    15.160815    15.160815            0            0            0 
  294700    306.70024   -1212.9907     227.0301   -985.96059    1485.7526    15.087576    15.087576    15.087576            0            0            0 
  294800    295.09296     -1210.55    218.43799   -992.11202    867.21877    15.016331    15.016331    15.016331            0            0            0 
  294900    267.81879    -1196.505    198.24871   -998.25628   -316.69378     14.95939     14.95939     14.95939            0            0            0 
  295000     278.9724   -1185.3388    206.50499   -978.83385   -976.00841    15.017118    15.017118    15.017118            0            0            0 
  295100    286.80744   -1186.9786    212.30476   -974.67381    591.13479    15.048012    15.048012    15.048012            0            0            0 
  295200    294.65199   -1203.9706    218.11157     -985.859    535.51607    15.250998    15.250998    15.250998            0            0            0 
  295300    290.29731   -1189.1373    214.88809   -974.24921    1916.4121    15.109384    15.109384    15.109384            0            0            0 
  295400    303.74826   -1190.6031    224.84494   -965.75813   -1573.6239    15.176066    15.176066    15.176066            0            0            0 
  295500    308.15645   -1220.6501    228.10803   -992.54211    1842.2664    14.869787    14.869787    14.869787            0            0            0 
  295600     315.6233   -1233.2517    233.63525   -999.61646   -1409.0323    14.993991    14.993991    14.993991            0            0            0 
  295700    303.71093   -1211.1167     224.8173   -986.29942    418.99133    14.873836    14.873836    14.873836            0            0            0 
  295800    301.32657   -1207.5231    223.05232   -984.47075   -8.0783606     14.82239     14.82239     14.82239            0            0            0 
  295900    274.41351   -1186.2786    203.13035   -983.14825    625.30998    14.912336    14.912336    14.912336            0            0            0 
  296000    299.13374    -1181.441    221.42911   -960.01188   -452.93137    14.895309    14.895309    14.895309            0            0            0 
  296100    333.80997   -1214.3889    247.09766   -967.29121   -592.41351    14.795396    14.795396    14.795396            0            0            0 
  296200    303.95953   -1202.1395    225.00133   -977.13818   -2676.9177    15.180209    15.180209    15.180209            0            0            0 
  296300    313.38181   -1183.4708    231.97602    -951.4948     1550.862    14.852359    14.852359    14.852359            0            0            0 
  296400    321.99379   -1206.9088    238.35091   -968.55793   -806.82245     14.82821     14.82821     14.82821            0            0            0 
  296500     313.9804    -1217.213    232.41912   -984.79387    1670.0504     14.77749     14.77749     14.77749            0            0            0 
  296600    314.61368   -1241.1467     232.8879   -1008.2588    881.27375    14.746501    14.746501    14.746501            0            0            0 
  296700    305.16563   -1199.7062    225.89413   -973.81206   -688.72989    14.849367    14.849367    14.849367            0            0            0 
  296800    311.87684   -1188.6091      230.862   -957.74708    766.32894    14.896154    14.896154    14.896154            0            0            0 
  296900    287.39856   -1179.4838    212.74233   -966.74144   -367.87287     15.05996     15.05996     15.05996            0            0            0 
  297000    290.18349   -1169.5565    214.80383   -954.75268   -1258.4957    15.428827    15.428827    15.428827            0            0            0 
  297100     287.1602   -1173.1971    212.56589   -960.63121   -185.74078    15.189124    15.189124    15.189124            0            0            0 
  297200    301.31417   -1211.4807    223.04314   -988.43757    866.73905    15.050521    15.050521    15.050521            0            0            0 
  297300    301.91594   -1202.3421     223.4886   -978.85353    1297.6302    15.156366    15.156366    15.156366            0            0            0 
  297400    277.59681   -1181.6191    205.48673   -976.13242   -721.91036    15.340298    15.340298    15.340298            0            0            0 
  297500    322.68153   -1213.7086       238.86   -974.84859   -1035.4941    15.216357    15.216357    15.216357            0            0            0 
  297600    290.88034   -1196.5387    215.31966     -981.219   -1123.2729    15.289807    15.289807    15.289807            0            0            0 
  297700    315.98495   -1209.9992    233.90296    -976.0962   -94.204737    15.208169    15.208169    15.208169            0            0            0 
  297800     290.6415   -1186.6019    215.14287   -971.45907   -903.18674    15.239876    15.239876    15.239876            0            0            0 
  297900    331.66098   -1202.1866     245.5069   -956.67968   -541.22095    15.110011    15.110011    15.110011            0            0            0 
  298000    274.73919   -1177.2563    203.37143   -973.88485    1402.4998    15.087747    15.087747    15.087747            0            0            0 
  298100    300.11129   -1176.4116    222.15273   -954.25888   -709.96402     15.14273     15.14273     15.14273            0            0            0 
  298200    305.90523   -1197.3678     226.4416   -970.92618   -1409.9622    15.190077    15.190077    15.190077            0            0            0 
  298300    288.06485   -1175.4779    213.23554    -962.2424   -2278.6439    15.237445    15.237445    15.237445            0            0            0 
  298400    338.44717    -1207.525    250.53027   -956.99475   -526.38768    15.103752    15.103752    15.103752            0            0            0 
  298500    294.02748   -1195.2944    217.64928   -977.64513    973.82309    15.073737    15.073737    15.073737            0            0            0 
  298600    298.43835   -1202.9989    220.91436    -982.0845   -2445.8181     15.27039     15.27039     15.27039            0            0            0 
  298700    289.39633   -1210.1378    214.22115   -995.91663    1300.8457    15.230854    15.230854    15.230854            0            0            0 
  298800    284.46228   -1221.9854    210.56879   -1011.4166    892.22297    15.176522    15.176522    15.176522            0            0            0 
  298900    265.17047   -1214.1048    196.28833   -1017.8164   -575.59456    15.179761    15.179761    15.179761            0            0            0 
  299000    285.01032    -1221.461    210.97447   -1010.4866   -253.69239    15.219819    15.219819    15.219819            0            0            0 
  299100    284.67527   -1216.9097    210.72646   -1006.1833    98.282302    15.268368    15.268368    15.268368            0            0            0 
  299200    290.53198   -1222.5309    215.06179   -1007.4691    1703.3083    14.967784    14.967784    14.967784            0            0            0 
  299300    294.53654   -1208.5171    218.02611   -990.49101   -948.42947    15.092142    15.092142    15.092142            0            0            0 
  299400    315.75714    -1205.485    233.73433   -971.75067    2758.9422    15.018866    15.018866    15.018866            0            0            0 
  299500    297.19347   -1226.5636    219.99286   -1006.5707    1021.5347    14.959699    14.959699    14.959699            0            0            0 
  299600    301.75364     -1201.79    223.36845   -978.42153    144.05155    15.038336    15.038336    15.038336            0            0            0 
  299700    305.94139   -1207.9501    226.46837   -981.48176   -342.62713    15.049794    15.049794    15.049794            0            0            0 
  299800     296.4572   -1203.5274    219.44785   -984.07959   -1851.7145    15.094298    15.094298    15.094298            0            0            0 
  299900    308.69402    -1222.739    228.50596   -994.23307    1358.2433    14.818164    14.818164    14.818164            0            0            0 
SHAKE stats (type/ave/delta) on step 300000
  1 0.957131 2.7817e-05 636
  300000    304.69599   -1179.3431    225.54648    -953.7966   -846.55579    15.051876    15.051876    15.051876            0            0            0 
  300100    341.10639   -1201.0713    252.49871   -948.57262    2034.8277    14.770799    14.770799    14.770799            0            0            0 
  300200    310.48036   -1179.6022    229.82827   -949.77397   -1.7957494    14.860563    14.860563    14.860563            0            0            0 
  300300    302.51252   -1190.6452    223.93021   -966.71499     2245.759    14.771218    14.771218    14.771218            0            0            0 
  300400     312.5663   -1195.4538    231.37236   -964.08141   -268.98081     15.04294     15.04294     15.04294            0            0            0 
  300500    329.86137   -1192.1185    244.17476   -947.94374    712.09649    14.953763    14.953763    14.953763            0            0            0 
  300600    313.11964   -1186.6574    231.78196   -954.87542     283.3742    14.957906    14.957906    14.957906            0            0            0 
  300700    312.30845   -1197.2174    231.18148   -966.03595    476.54828    14.997211    14.997211    14.997211            0            0            0 
  300800    307.56642   -1210.2907    227.67128   -982.61941   -614.33249    15.168586    15.168586    15.168586            0            0            0 
  300900    284.43701   -1187.1923    210.55009   -976.64218   -467.79579     15.07619     15.07619     15.07619            0            0            0 
  301000    322.30322   -1208.1802    238.57996   -969.60022    -471.4234    14.995632    14.995632    14.995632            0            0            0 
  301100    287.41364   -1219.1283    212.75349   -1006.3748   -277.12986    14.903573    14.903573    14.903573            0            0            0 
  301200    278.23187   -1228.1318    205.95683    -1022.175   -1129.8874    14.871344    14.871344    14.871344            0            0            0 
  301300    317.88261   -1215.8721    235.30767   -980.56439    -14.66717    14.944535    14.944535    14.944535            0            0            0 
  301400    313.15767   -1242.9377    231.81011   -1011.1276    145.53338    14.871177    14.871177    14.871177            0            0            0 
  301500    265.68889   -1200.0894    196.67208   -1003.4173   -325.34223    14.950571    14.950571    14.950571            0            0            0 
  301600     294.2539   -1205.4719    217.81688   -987.65498    1337.1047    14.882263    14.882263    14.882263            0            0            0 
  301700     313.5055   -1226.3516    232.06759   -994.28404   -158.13422    14.862696    14.862696    14.862696            0            0            0 
  301800     304.7195   -1209.7153    225.56388   -984.15142   -866.45513    14.980468    14.980468    14.980468            0            0            0 
  301900    301.47038   -1205.2283    223.15877    -982.0695    2480.6227     14.87372     14.87372     14.87372            0            0            0 
  302000    290.91681    -1194.836    215.34666   -979.48933   -1213.5988    15.086734    15.086734    15.086734            0            0            0 
  302100    303.74144   -1218.9512    224.83989   -994.11128   -464.73264    14.936611    14.936611    14.936611            0            0            0 
  302200    300.59265   -1211.6803    222.50905   -989.17124   -819.44148    14.930351    14.930351    14.930351            0            0            0 
  302300    295.14005   -1214.6749    218.47285   -996.20207    2130.8416    14.704401    14.704401    14.704401            0            0            0 
  302400    298.97798   -1223.3883    221.31381   -1002.0745   -938.51788    14.836663    14.836663    14.836663            0            0            0 
  302500    299.70751   -1212.0008    221.85384   -990.14699    1565.8566    14.928195    14.928195    14.928195            0            0            0 
  302600    284.80736   -1224.9413    210.82424    -1014.117    1195.2654     14.88557     14.88557     14.88557            0            0            0 
  302700    283.39252   -1234.2576    209.77692   -1024.4807    683.61172    14.953232    14.953232    14.953232            0            0            0 
  302800    293.35856   -1249.4613    217.15412   -1032.3072    288.50675    14.935369    14.935369    14.935369            0            0            0 
  302900    278.11217   -1243.6696    205.86822   -1037.8014    -2161.059    15.050826    15.050826    15.050826            0            0            0 
  303000    268.78903   -1246.6163    198.96691   -1047.6494    129.72691     14.94063     14.94063     14.94063            0            0            0 
  303100    272.53964    -1225.786    201.74324   -1024.0428    107.99089    14.958629    14.958629    14.958629            0            0            0 
  303200    268.30113   -1228.3834    198.60575   -1029.7776   -604.69336    14.880913    14.880913    14.880913            0            0            0 
  303300    284.50261    -1261.934    210.59865   -1051.3354    928.27852    14.774587    14.774587    14.774587            0            0            0 
  303400    257.57636   -1230.9421    190.66691   -1040.2752   -491.55202    14.883581    14.883581    14.883581            0            0            0 
  303500    296.60853   -1214.9312    219.55986   -995.37129   -570.64654    14.732043    14.732043    14.732043            0            0            0 
  303600     298.2317   -1242.1698    220.76139   -1021.4084   -1759.0991    14.820265    14.820265    14.820265            0            0            0 
  303700    321.57463   -1210.6752    238.04063   -972.63452    2088.4427    14.684887    14.684887    14.684887            0            0            0 
  303800    299.05978   -1208.4879    221.37437   -987.11357   -1.6906678    14.922171    14.922171    14.922171            0            0            0 
  303900    269.01636   -1223.2366    199.13519   -1024.1014    251.39668    14.901561    14.901561    14.901561            0            0            0 
  304000       293.24   -1225.2693    217.06636   -1008.2029   -1491.6812    14.891499    14.891499    14.891499            0            0            0 
  304100     306.4644   -1193.3854    226.85552   -966.52983   -684.02716    14.954071    14.954071    14.954071            0            0            0 
  304200    301.78967   -1200.7433    223.39513    -977.3482   -36.898978    14.890247    14.890247    14.890247            0            0            0 
  304300    287.37531    -1206.204    212.72512   -993.47886   -1491.7253    14.973498    14.973498    14.973498            0            0            0 
  304400     279.2157   -1233.2439    206.68509   -1026.5588    1110.0841    14.813693    14.813693    14.813693            0            0            0 
  304500    268.36235   -1224.7372    198.65107   -1026.0861     -902.214    14.954963    14.954963    14.954963            0            0            0 
  304600     265.2102   -1222.7968    196.31774    -1026.479   -582.23544    15.017728    15.017728    15.017728            0            0            0 
  304700    305.30513   -1215.2737    225.99739   -989.27631    1465.7326    14.878039    14.878039    14.878039            0            0            0 
  304800    270.03967   -1201.9441    199.89268   -1002.0514    1008.2465    14.977187    14.977187    14.977187            0            0            0 
  304900    297.26096   -1196.4959    220.04282   -976.45312    1317.4803    14.987885    14.987885    14.987885            0            0            0 
  305000    295.22287   -1179.9313    218.53415   -961.39715   -370.23094    15.198973    15.198973    15.198973            0            0            0 
  305100    297.28342   -1170.6655    220.05945   -950.60602   -802.28126    15.114945    15.114945    15.114945            0            0            0 
  305200    341.20647   -1169.9434     252.5728   -917.37064   -38.477045    15.070538    15.070538    15.070538            0            0            0 
  305300    313.49442   -1196.3294    232.05938   -964.27006    597.50303    15.127525    15.127525    15.127525            0            0            0 
  305400    296.40535   -1191.9005    219.40946   -972.49107    39.302586    15.131349    15.131349    15.131349            0            0            0 
  305500    310.08191   -1201.3038    229.53333   -971.77049   -97.610492    15.112211    15.112211    15.112211            0            0            0 
  305600    296.81826   -1205.9229    219.71512   -986.20776    1226.7777    14.947786    14.947786    14.947786            0            0            0 
  305700    291.45514   -1199.4701    215.74515   -983.72496     -1445.97    14.987299    14.987299    14.987299            0            0            0 
  305800    305.72062   -1238.6065    226.30495   -1012.3015     2037.647    14.799121    14.799121    14.799121            0            0            0 
  305900    286.63525   -1226.2667     212.1773   -1014.0894   -2121.6759    14.965945    14.965945    14.965945            0            0            0 
  306000     319.3338   -1228.9651    236.38189   -992.58321    1190.5914    14.682748    14.682748    14.682748            0            0            0 
  306100    299.21375   -1215.5813    221.48834   -994.09299      419.747    14.897324    14.897324    14.897324            0            0            0 
  306200    293.75363   -1223.7005    217.44657   -1006.2539   -735.17836    14.809668    14.809668    14.809668            0            0            0 
  306300    320.71864   -1248.1876      237.407   -1010.7806    1513.4205    14.617706    14.617706    14.617706            0            0            0 
  306400    316.42086   -1218.2981    234.22564   -984.07244   -533.61476    14.951172    14.951172    14.951172            0            0            0 
  306500    288.63124   -1202.5496     213.6548   -988.89483     309.3459    15.007155    15.007155    15.007155            0            0            0 
  306600    320.22604   -1188.8615    237.04236   -951.81919   -172.14569    14.909058    14.909058    14.909058            0            0            0 
  306700     296.9355   -1199.3291     219.8019   -979.52716    1671.0896    14.785286    14.785286    14.785286            0            0            0 
  306800    290.39367   -1202.0298    214.95941   -987.07036   -608.36719    14.772244    14.772244    14.772244            0            0            0 
  306900    313.31803   -1227.0136    231.92881   -995.08479    -456.2827    14.814462    14.814462    14.814462            0            0            0 
  307000    283.63953   -1191.9089    209.95976    -981.9491   -1513.4586    14.885831    14.885831    14.885831            0            0            0 
  307100    295.82336   -1195.9111    218.97865   -976.93245    400.72933    14.851292    14.851292    14.851292            0            0            0 
  307200    294.31882   -1203.4575    217.86494   -985.59258    2796.9343    14.882945    14.882945    14.882945            0            0            0 
  307300    308.15026    -1190.333    228.10345   -962.22954   -2331.0648    15.160147    15.160147    15.160147            0            0            0 
  307400     309.9328   -1193.0253    229.42295   -963.60232    872.32475    14.974652    14.974652    14.974652            0            0            0 
  307500    304.16037   -1211.7072    225.14999   -986.55725    516.16919    14.878953    14.878953    14.878953            0            0            0 
  307600    317.69205    -1197.051    235.16662   -961.88434    108.42033    14.926448    14.926448    14.926448            0            0            0 
  307700    317.64689    -1217.101    235.13319    -981.9678    2438.2852    14.756767    14.756767    14.756767            0            0            0 
  307800    319.69868    -1212.469    236.65199   -975.81697   -708.55744    14.972852    14.972852    14.972852            0            0            0 
  307900    303.96871    -1194.807    225.00812    -969.7989   -881.58635    14.935548    14.935548    14.935548            0            0            0 
  308000    329.67522   -1198.7596    244.03697   -954.72261   -132.24846    14.914831    14.914831    14.914831            0            0            0 
  308100     298.8974   -1185.0871    221.25417   -963.83294    1187.7743    14.935418    14.935418    14.935418            0            0            0 
  308200    315.58245   -1154.3328    233.60501   -920.72781    263.75779    15.103129    15.103129    15.103129            0            0            0 
  308300    332.25266   -1173.0834    245.94488   -927.13856    1149.4564    15.094718    15.094718    15.094718            0            0            0 
  308400    313.97644   -1157.8684    232.41619   -925.45226    589.62627    15.109543    15.109543    15.109543            0            0            0 
  308500     307.4686   -1165.3052    227.59886   -937.70634    575.55994    15.011426    15.011426    15.011426            0            0            0 
  308600    318.53591   -1193.0581    235.79127   -957.26681    1435.7539    15.110158    15.110158    15.110158            0            0            0 
  308700    291.37796   -1193.3222    215.68802   -977.63418   -2182.4519      15.2893      15.2893      15.2893            0            0            0 
  308800    314.39869   -1208.5914    232.72875   -975.86267    1299.7507     14.97154     14.97154     14.97154            0            0            0 
  308900    291.39024   -1199.1328     215.6971   -983.43566    -588.2019    15.092799    15.092799    15.092799            0            0            0 
  309000    270.16477   -1170.1331    199.98528   -970.14779   -1312.2922    15.066892    15.066892    15.066892            0            0            0 
  309100     290.7765   -1221.9163    215.24279   -1006.6735    237.63985    14.842785    14.842785    14.842785            0            0            0 
  309200    288.38062   -1237.5938    213.46928   -1024.1245    93.293623    14.805605    14.805605    14.805605            0            0            0 
  309300    272.06566   -1224.6847    201.39239   -1023.2923    468.33765     14.80334     14.80334     14.80334            0            0            0 
  309400     301.0653    -1212.229    222.85892   -989.37011   -203.27197     14.72008     14.72008     14.72008            0            0            0 
  309500    297.37419   -1237.9494    220.12663   -1017.8227    2645.4065    14.610697    14.610697    14.610697            0            0            0 
  309600    297.04455   -1209.8257    219.88262   -989.94304   -1853.9907    14.880693    14.880693    14.880693            0            0            0 
  309700    288.05199   -1224.5967    213.22602   -1011.3706   -946.92151    14.866037    14.866037    14.866037            0            0            0 
  309800    289.06369   -1227.0418    213.97491   -1013.0668   -427.75121    14.824628    14.824628    14.824628            0            0            0 
  309900    250.49248    -1212.536    185.42317   -1027.1128    650.89548    14.827771    14.827771    14.827771            0            0            0 
  310000     307.9843   -1224.8435     227.9806   -996.86292   -1557.2404    14.846395    14.846395    14.846395            0            0            0 
  310100    279.69557     -1220.57    207.04031   -1013.5297   -1642.8096    14.899067    14.899067    14.899067            0            0            0 
  310200    278.14027   -1252.0977    205.88902   -1046.2087   -184.85272    14.842275    14.842275    14.842275            0            0            0 
  310300    305.54966   -1252.3549     226.1784   -1026.1765    817.03301    14.782615    14.782615    14.782615            0            0            0 
  310400    304.83239   -1227.0048    225.64745   -1001.3573   -1337.0509    15.020146    15.020146    15.020146            0            0            0 
  310500    332.08494   -1221.6267    245.82073   -975.80602   -2376.5108    15.182308    15.182308    15.182308            0            0            0 
  310600    295.76655   -1227.9668     218.9366   -1009.0302    403.90988    14.918249    14.918249    14.918249            0            0            0 
  310700    282.92536   -1205.4924    209.43111   -996.06124     -72.3828    15.004479    15.004479    15.004479            0            0            0 
  310800    284.84449   -1204.1772    210.85172   -993.32547    27.679389    14.969053    14.969053    14.969053            0            0            0 
  310900    309.40205   -1217.5847    229.03007   -988.55459   -1996.2159    14.951579    14.951579    14.951579            0            0            0 
  311000    329.57036   -1215.1182    243.95935    -971.1588     1335.084     14.75551     14.75551     14.75551            0            0            0 
  311100    290.59962   -1187.2335    215.11186   -972.12163   -1291.1451    14.904246    14.904246    14.904246            0            0            0 
  311200    312.92698   -1173.8224    231.63934   -942.18303    554.91321    14.828681    14.828681    14.828681            0            0            0 
  311300    319.67168   -1174.0554      236.632   -937.42336    587.12057    14.870142    14.870142    14.870142            0            0            0 
  311400    307.74869   -1171.3521     227.8062    -943.5459   -696.28428    14.933481    14.933481    14.933481            0            0            0 
  311500    292.93741   -1190.4763    216.84238   -973.63393    501.47983    14.853159    14.853159    14.853159            0            0            0 
  311600    312.24196   -1199.7665    231.13227   -968.63419   -113.87386    15.006283    15.006283    15.006283            0            0            0 
  311700    333.35784   -1192.6426    246.76298   -945.87962   -476.20174    15.111977    15.111977    15.111977            0            0            0 
  311800     295.0278   -1184.0679    218.38976   -965.67811   -1921.8388    15.208654    15.208654    15.208654            0            0            0 
  311900    319.32848   -1190.5546    236.37796   -954.17667   -1583.7584    15.303051    15.303051    15.303051            0            0            0 
  312000    334.31545   -1181.6173    247.47183   -934.14548    2999.0412    15.020594    15.020594    15.020594            0            0            0 
  312100    319.42058   -1167.0305    236.44613   -930.58434   -149.88141    15.030948    15.030948    15.030948            0            0            0 
  312200    304.44707   -1185.9199    225.36222   -960.55766    362.96535    14.990336    14.990336    14.990336            0            0            0 
  312300    292.48017   -1182.1846    216.50391   -965.68069      966.969    14.968687    14.968687    14.968687            0            0            0 
  312400    307.29573   -1198.6354     227.4709   -971.16453   -72.017908    14.908749    14.908749    14.908749            0            0            0 
  312500     318.0574    -1233.606    235.43706   -998.16893   -1071.7505    14.896665    14.896665    14.896665            0            0            0 
  312600    272.59014   -1228.8295    201.78062   -1027.0488   -33.074327    14.818033    14.818033    14.818033            0            0            0 
  312700    265.34877   -1226.8474    196.42032   -1030.4271   -259.17357    14.821837    14.821837    14.821837            0            0            0 
  312800    276.94275   -1219.3905    205.00257   -1014.3879   -42.035293     14.92336     14.92336     14.92336            0            0            0 
  312900    293.70715   -1235.4102    217.41216    -1017.998   -1231.2032    14.957981    14.957981    14.957981            0            0            0 
  313000    293.63744   -1230.0551    217.36056   -1012.6946    1279.1799    14.830972    14.830972    14.830972            0            0            0 
  313100    296.30528   -1225.1105    219.33539   -1005.7751    1877.0614    14.712638    14.712638    14.712638            0            0            0 
  313200    288.87503   -1229.5269    213.83526   -1015.6916    1172.3438    14.818497    14.818497    14.818497            0            0            0 
  313300    335.67649    -1232.817    248.47932   -984.33766   -2196.9506    15.127977    15.127977    15.127977            0            0            0 
  313400    293.04591   -1221.5116    216.92269   -1004.5889    669.01338    15.035007    15.035007    15.035007            0            0            0 
  313500    288.46804   -1212.3098    213.53399   -998.77584    1520.6347    14.955625    14.955625    14.955625            0            0            0 
  313600    290.82706   -1232.2536    215.28022   -1016.9733    732.60616    14.950966    14.950966    14.950966            0            0            0 
  313700    297.59858   -1215.3793    220.29274   -995.08655    665.30909    15.135077    15.135077    15.135077            0            0            0 
  313800    292.60123   -1231.2296    216.59353    -1014.636    249.88117    15.110135    15.110135    15.110135            0            0            0 
  313900    279.36943   -1211.7559    206.79889    -1004.957   -494.04167    15.033595    15.033595    15.033595            0            0            0 
  314000    279.63746   -1218.1429    206.99729   -1011.1457   -461.21473     15.09604     15.09604     15.09604            0            0            0 
  314100    289.89337   -1216.7036    214.58907   -1002.1145    48.968961    15.053596    15.053596    15.053596            0            0            0 
  314200    277.57907   -1215.4811     205.4736   -1010.0075    1119.3947     15.09769     15.09769     15.09769            0            0            0 
  314300    279.27179   -1212.6965    206.72661   -1005.9699    904.37072    15.046362    15.046362    15.046362            0            0            0 
  314400    293.29147   -1198.3083    217.10446    -981.2038   -1249.6857    15.144904    15.144904    15.144904            0            0            0 
  314500    301.12391   -1186.4901     222.9023   -963.58778   -545.02053    15.156872    15.156872    15.156872            0            0            0 
  314600    300.03359   -1177.9586    222.09521    -955.8634   -446.35864    15.294957    15.294957    15.294957            0            0            0 
  314700    296.38001   -1179.3098    219.39071    -959.9191   -410.46261     15.25303     15.25303     15.25303            0            0            0 
  314800    299.19905   -1186.9308    221.47746   -965.45329   -353.56839    15.241743    15.241743    15.241743            0            0            0 
  314900     283.3606   -1223.6532    209.75329   -1013.8999    143.33768    15.177287    15.177287    15.177287            0            0            0 
  315000    288.86453   -1222.5368    213.82749   -1008.7093   -1409.4571    15.127368    15.127368    15.127368            0            0            0 
  315100    311.71742   -1222.8389    230.74399   -992.09489    232.22377    15.042407    15.042407    15.042407            0            0            0 
  315200    301.28642   -1208.9213     223.0226   -985.89867    137.25137    15.002124    15.002124    15.002124            0            0            0 
  315300    287.38306   -1191.6746    212.73086   -978.94371   -1654.7011    15.264607    15.264607    15.264607            0            0            0 
  315400    275.57418   -1168.7526    203.98952   -964.76307    1478.3774      15.2574      15.2574      15.2574            0            0            0 
  315500    309.37876   -1186.4851    229.01283   -957.47222    735.78344    15.103399    15.103399    15.103399            0            0            0 
  315600    315.35339   -1195.7105    233.43546   -962.27501    377.12601    15.015843    15.015843    15.015843            0            0            0 
  315700    318.10716   -1198.1384    235.47389   -962.66455    324.84707    14.885745    14.885745    14.885745            0            0            0 
  315800    274.77851   -1208.3306    203.40053   -1004.9301   -534.74498     14.83924     14.83924     14.83924            0            0            0 
  315900    284.07761   -1225.0997    210.28404   -1014.8156   -1043.1992    14.922209    14.922209    14.922209            0            0            0 
  316000    277.44015    -1199.031    205.37077   -993.66018    3897.7101    14.822469    14.822469    14.822469            0            0            0 
  316100    300.97572   -1220.0672    222.79261    -997.2746     1539.004    14.997902    14.997902    14.997902            0            0            0 
  316200    293.14832   -1205.9597     216.9985   -988.96118   -920.26535    15.161467    15.161467    15.161467            0            0            0 
  316300    291.68406   -1225.7503     215.9146   -1009.8357    1554.7813    14.953265    14.953265    14.953265            0            0            0 
  316400    286.11479   -1193.9213    211.79204    -982.1293   -385.08495    15.088323    15.088323    15.088323            0            0            0 
  316500    317.25095   -1226.0168     234.8401   -991.17665    424.99319    14.913398    14.913398    14.913398            0            0            0 
  316600    309.50771   -1217.3799    229.10828   -988.27163    2138.6702    14.886894    14.886894    14.886894            0            0            0 
  316700    302.44102   -1225.4273    223.87727     -1001.55   -784.60345    14.990409    14.990409    14.990409            0            0            0 
  316800    290.25742   -1211.3349    214.85856   -996.47636    10.504466    14.846125    14.846125    14.846125            0            0            0 
  316900    309.53139   -1215.9236    229.12582   -986.79779   -3039.4038    14.843078    14.843078    14.843078            0            0            0 
  317000    306.01548     -1211.89    226.52322   -985.36682    737.15936    14.883332    14.883332    14.883332            0            0            0 
  317100    306.82557   -1210.7515    227.12287   -983.62862     854.8943    14.837637    14.837637    14.837637            0            0            0 
  317200    293.36539   -1197.3139    217.15918   -980.15471   -1879.9063    14.933658    14.933658    14.933658            0            0            0 
  317300     301.8266   -1197.9666    223.42246   -974.54413   -1808.8323    14.909792    14.909792    14.909792            0            0            0 
  317400      306.846   -1220.1827      227.138   -993.04475    17.476586    14.935946    14.935946    14.935946            0            0            0 
  317500    312.83884   -1211.8872     231.5741   -980.31311    432.37277    14.983558    14.983558    14.983558            0            0            0 
  317600    302.17636   -1230.6101    223.68137   -1006.9287    1321.9386    14.890494    14.890494    14.890494            0            0            0 
  317700    302.81531    -1225.839    224.15434   -1001.6847    578.28984    14.950274    14.950274    14.950274            0            0            0 
  317800    304.26675   -1214.3451    225.22874   -989.11639    -266.5934    14.911662    14.911662    14.911662            0            0            0 
  317900    322.67534   -1219.1355    238.85542   -980.28006    771.21406    14.745083    14.745083    14.745083            0            0            0 
  318000    290.46359    -1204.753    215.01117   -989.74182    112.04291    14.901627    14.901627    14.901627            0            0            0 
  318100    310.67941   -1220.3904    229.97561   -990.41483    967.20915    14.841054    14.841054    14.841054            0            0            0 
  318200    297.52318   -1223.0733    220.23692   -1002.8364     653.2849    14.937601    14.937601    14.937601            0            0            0 
  318300    295.96272   -1205.9169    219.08181   -986.83512   -2257.5896    15.075585    15.075585    15.075585            0            0            0 
  318400    329.43434   -1217.0986    243.85866   -973.23999    459.11504    14.843652    14.843652    14.843652            0            0            0 
  318500    316.24221   -1197.9456    234.09339    -963.8522     1973.265    14.903502    14.903502    14.903502            0            0            0 
  318600    310.19241   -1188.9665    229.61512   -959.35136    -691.9544    14.890763    14.890763    14.890763            0            0            0 
  318700    317.65133   -1220.3879    235.13647    -985.2514    542.63702    14.708678    14.708678    14.708678            0            0            0 
  318800    285.73535   -1222.9782    211.51116   -1011.4671   -1622.3905    14.823194    14.823194    14.823194            0            0            0 
  318900    298.37055   -1225.2102    220.86417   -1004.3461   -769.80617     14.65359     14.65359     14.65359            0            0            0 
  319000    324.79402   -1256.1999    240.42374   -1015.7762    2296.2052    14.581374    14.581374    14.581374            0            0            0 
  319100    309.53586   -1194.0406    229.12912   -964.91144   -567.94092    14.968147    14.968147    14.968147            0            0            0 
  319200     290.7815   -1207.8434    215.24649   -992.59692    978.23786    14.957459    14.957459    14.957459            0            0            0 
  319300    283.07235   -1207.6411    209.53992   -998.10117    1556.5304    14.873663    14.873663    14.873663            0            0            0 
  319400    275.59655   -1209.8002    204.00607   -1005.7941    656.57263    14.933999    14.933999    14.933999            0            0            0 
  319500    289.13504   -1223.0034    214.02773   -1008.9757   -402.21568    14.938842    14.938842    14.938842            0            0            0 
  319600    299.25523   -1211.1908    221.51904    -989.6718   -783.39586    14.951653    14.951653    14.951653            0            0            0 
  319700    306.64955   -1214.1249    226.99257   -987.13235    -1215.722    15.033501    15.033501    15.033501            0            0            0 
  319800    325.15431    -1207.363    240.69044   -966.67251   -55.965675    14.969111    14.969111    14.969111            0            0            0 
  319900    306.27616   -1200.1923    226.71618   -973.47617     -1248.28    15.025288    15.025288    15.025288            0            0            0 
  320000    273.39413   -1191.5725    202.37576   -989.19674   -797.17829    15.055458    15.055458    15.055458            0            0            0 
  320100    298.16862   -1199.9976     220.7147   -979.28288   -1209.4752    15.087359    15.087359    15.087359            0            0            0 
  320200    286.09732   -1202.4029    211.77911   -990.62376    2109.0795    14.860884    14.860884    14.860884            0            0            0 
  320300    292.87995   -1190.9694    216.79984   -974.16961   -201.99676    15.096417    15.096417    15.096417            0            0            0 
  320400    301.53606   -1191.6855    223.20739   -968.47814    396.76192    15.158765    15.158765    15.158765            0            0            0 
  320500    322.49459   -1207.9708    238.72162   -969.24922    130.10653    14.990584    14.990584    14.990584            0            0            0 
  320600    311.41983    -1198.785     230.5237   -968.26131    1100.6739    14.831721    14.831721    14.831721            0            0            0 
  320700    290.93975   -1200.5634    215.36364   -985.19974    365.42867    14.969913    14.969913    14.969913            0            0            0 
  320800    296.71477    -1191.254     219.6385   -971.61548    243.76523    14.922282    14.922282    14.922282            0            0            0 
  320900    293.21559   -1186.9118    217.04829    -969.8635    1089.3295    14.913609    14.913609    14.913609            0            0            0 
  321000    326.16226   -1193.7977    241.43656   -952.36115    727.76426    15.090045    15.090045    15.090045            0            0            0 
  321100     322.3469    -1163.311     238.6123   -924.69868   -126.76271    15.121885    15.121885    15.121885            0            0            0 
  321200    301.58234   -1155.6424    223.24165   -932.40073    1376.7875    14.986991    14.986991    14.986991            0            0            0 
  321300    323.55768   -1175.9863    239.50855   -936.47774   -507.09988    15.102838    15.102838    15.102838            0            0            0 
  321400    326.90378   -1188.8679    241.98545   -946.88242    1778.4074    14.954171    14.954171    14.954171            0            0            0 
  321500    288.27286   -1162.0667    213.38952   -948.67714    1331.5758    14.980915    14.980915    14.980915            0            0            0 
  321600     328.8943    -1164.025    243.45891   -920.56609   -1034.0824    15.062768    15.062768    15.062768            0            0            0 
  321700    304.01582   -1143.1536      225.043   -918.11057   -514.50815     15.05759     15.05759     15.05759            0            0            0 
  321800    297.26188   -1172.6835     220.0435   -952.63997    912.95445    14.949314    14.949314    14.949314            0            0            0 
  321900    306.56763   -1197.2054    226.93193   -970.27349   -1414.0996    14.871929    14.871929    14.871929            0            0            0 
  322000    324.62372   -1189.6597    240.29768   -949.36206   -322.21052    14.888856    14.888856    14.888856            0            0            0 
  322100    314.98872   -1211.9089    233.16551    -978.7434    986.94002    15.052169    15.052169    15.052169            0            0            0 
  322200    293.95619   -1197.1426    217.59651   -979.54608    208.36398    15.114029    15.114029    15.114029            0            0            0 
  322300    328.06391   -1197.2395    242.84422   -954.39523    1207.8822    15.102739    15.102739    15.102739            0            0            0 
  322400    313.09625   -1192.1446    231.76464   -960.37997    -443.2043    15.124267    15.124267    15.124267            0            0            0 
  322500    318.82777   -1182.7726    236.00731   -946.76533   -1598.1682    15.161299    15.161299    15.161299            0            0            0 
  322600    287.24321   -1180.8429    212.62734   -968.21558   -1174.2992    15.147173    15.147173    15.147173            0            0            0 
  322700    329.48481   -1212.2529    243.89603   -968.35692    273.34309    15.147601    15.147601    15.147601            0            0            0 
  322800    306.39532   -1213.0339    226.80439   -986.22953   -1338.1948    15.284695    15.284695    15.284695            0            0            0 
  322900    283.20254    -1215.506    209.63629   -1005.8697    342.26436    15.176428    15.176428    15.176428            0            0            0 
  323000    307.71287    -1221.784    227.77968   -994.00432   -799.22186    15.147708    15.147708    15.147708            0            0            0 
  323100    299.21881   -1211.8463    221.49208   -990.35418   -1371.7695     15.07183     15.07183     15.07183            0            0            0 
  323200    306.83761   -1206.3545    227.13179   -979.22275    501.00334    14.861238    14.861238    14.861238            0            0            0 
  323300    296.75213   -1227.3653    219.66617   -1007.6992   -351.62392    14.949601    14.949601    14.949601            0            0            0 
  323400    258.98263   -1218.0806    191.70788   -1026.3728   -1371.3076     14.99881     14.99881     14.99881            0            0            0 
  323500    298.21197   -1207.0294    220.74679   -986.28259    1799.9299    14.841444    14.841444    14.841444            0            0            0 
  323600    285.97661   -1201.4742    211.68975   -989.78441   -1715.4113    15.063595    15.063595    15.063595            0            0            0 
  323700    285.94862   -1174.8707    211.66903   -963.20163    1358.2189    14.876788    14.876788    14.876788            0            0            0 
  323800    306.64842   -1191.0469    226.99174   -964.05518     1089.973    14.939838    14.939838    14.939838            0            0            0 
  323900     305.4088   -1185.4243    226.07413   -959.35018   -1271.7952    15.231567    15.231567    15.231567            0            0            0 
  324000     313.8842   -1199.8332    232.34791   -967.48527   -384.87596    15.152075    15.152075    15.152075            0            0            0 
  324100    295.86769   -1194.9971    219.01147   -975.98565    -1148.863    15.037839    15.037839    15.037839            0            0            0 
  324200    296.86241   -1192.5825    219.74779   -972.83466    740.45232    14.981733    14.981733    14.981733            0            0            0 
  324300    279.31337   -1195.4752    206.75739   -988.71778    390.18696    15.083005    15.083005    15.083005            0            0            0 
  324400    273.27191   -1193.5163    202.28529   -991.23102   -549.28576    15.180343    15.180343    15.180343            0            0            0 
  324500    287.62127   -1212.2042    212.90718   -999.29703   -1016.2935    15.245661    15.245661    15.245661            0            0            0 
  324600    314.67223   -1208.5622    232.93124   -975.63093    552.02985    15.057645    15.057645    15.057645            0            0            0 
  324700    326.22137   -1198.9313    241.48031   -957.45104    1033.3104    14.951266    14.951266    14.951266            0            0            0 
  324800    305.37572   -1179.4712    226.04964   -953.42155   -1777.9581    15.096211    15.096211    15.096211            0            0            0 
  324900    284.96056    -1184.726    210.93764   -973.78838    149.26686    15.036719    15.036719    15.036719            0            0            0 
  325000    306.90075   -1191.4577    227.17852   -964.27916    492.37934    15.074403    15.074403    15.074403            0            0            0 
  325100    318.51724   -1194.5562    235.77745   -958.77874   -261.59196    14.983477    14.983477    14.983477            0            0            0 
  325200    296.75724   -1185.5024    219.66995   -965.83249    1071.1236    15.001529    15.001529    15.001529            0            0            0 
  325300    300.43888    -1184.082    222.39523   -961.68673   -1557.9818    15.099126    15.099126    15.099126            0            0            0 
  325400    288.49336   -1198.8364    213.55274   -985.28368   -234.20536    15.051493    15.051493    15.051493            0            0            0 
  325500    296.03476   -1198.1826    219.13514   -979.04743    251.97605    14.967033    14.967033    14.967033            0            0            0 
  325600    302.39424     -1201.58    223.84265   -977.73736    946.25927    14.943821    14.943821    14.943821            0            0            0 
  325700    294.11403   -1206.4761    217.71335   -988.76272   -2728.0171    15.066551    15.066551    15.066551            0            0            0 
  325800    308.43793   -1218.3173     228.3164   -990.00086   -383.35077    14.969923    14.969923    14.969923            0            0            0 
  325900    286.87545   -1208.3526     212.3551    -995.9975    1281.6365    15.037881    15.037881    15.037881            0            0            0 
  326000    313.82446   -1197.5659    232.30369   -965.26219   -509.92171    15.100264    15.100264    15.100264            0            0            0 
  326100    308.92406   -1211.8498    228.67625   -983.17355     73.04451    14.991664    14.991664    14.991664            0            0            0 
  326200    307.14644   -1205.2274    227.36039   -977.86703   -3159.9952    15.227583    15.227583    15.227583            0            0            0 
  326300    301.22731   -1206.5572    222.97885   -983.57832   -1143.5963    15.244296    15.244296    15.244296            0            0            0 
  326400    296.17146   -1224.2617    219.23633   -1005.0253    475.58957    15.145299    15.145299    15.145299            0            0            0 
  326500    278.97774   -1201.0784    206.50894   -994.56947   -2034.5835    15.063933    15.063933    15.063933            0            0            0 
  326600    296.30149   -1232.2397    219.33259   -1012.9071    349.04533    14.813321    14.813321    14.813321            0            0            0 
  326700    264.12777   -1210.3588    195.51649   -1014.8423    2529.5985     14.78484     14.78484     14.78484            0            0            0 
  326800     289.4517   -1210.1423    214.26213   -995.88021   -1274.8963    14.938299    14.938299    14.938299            0            0            0 
  326900    300.77072   -1237.2769    222.64086   -1014.6361   -225.88499    14.878003    14.878003    14.878003            0            0            0 
  327000    279.07459   -1238.7608    206.58064   -1032.1802     607.0563    14.888697    14.888697    14.888697            0            0            0 
  327100    285.99529   -1218.4292    211.70358   -1006.7256   -1476.1877    14.846041    14.846041    14.846041            0            0            0 
  327200    313.67387   -1208.2266    232.19222   -976.03439   -1212.6349     14.85539     14.85539     14.85539            0            0            0 
  327300    304.08675   -1242.3006     225.0955   -1017.2051    3527.9494    14.542898    14.542898    14.542898            0            0            0 
  327400    284.26986    -1241.896    210.42635   -1031.4697   -153.26877    14.688655    14.688655    14.688655            0            0            0 
  327500    285.58751   -1238.0566    211.40173   -1026.6549    408.36964    14.753686    14.753686    14.753686            0            0            0 
  327600    294.80403   -1236.7939    218.22411   -1018.5698   -487.15639    14.941922    14.941922    14.941922            0            0            0 
  327700     297.0393   -1206.9287    219.87873   -987.05001   -1987.9517    15.120628    15.120628    15.120628            0            0            0 
  327800    306.26654   -1222.7325    226.70906   -996.02348   -143.13427    15.070359    15.070359    15.070359            0            0            0 
  327900    314.74002   -1216.7894    232.98142   -983.80799   -774.44641    15.107674    15.107674    15.107674            0            0            0 
  328000    310.46529   -1236.3706    229.81712   -1006.5535    1187.4886    14.862418    14.862418    14.862418            0            0            0 
  328100    289.82947   -1207.2854    214.54177   -992.74361    1502.6304    14.812891    14.812891    14.812891            0            0            0 
  328200    294.07283   -1184.5873    217.68285   -966.90441   -2122.7443    15.006319    15.006319    15.006319            0            0            0 
  328300    313.42285   -1206.9272     232.0064   -974.92078    708.17132    14.947801    14.947801    14.947801            0            0            0 
  328400    328.29133   -1201.4129    243.01257   -958.40029    1244.0195    14.904688    14.904688    14.904688            0            0            0 
  328500    277.19236   -1233.9583    205.18735    -1028.771   -5.8400893    14.902386    14.902386    14.902386            0            0            0 
  328600    292.53919   -1214.9027     216.5476   -998.35511    1338.3941    14.709174    14.709174    14.709174            0            0            0 
  328700    313.07821   -1218.2208    231.75129   -986.46953   -1576.6457    14.894762    14.894762    14.894762            0            0            0 
  328800    305.12143   -1222.9868     225.8614   -997.12536   -2618.3253    15.059624    15.059624    15.059624            0            0            0 
  328900    331.75726   -1215.4234    245.57817   -969.84526    415.62862    15.067801    15.067801    15.067801            0            0            0 
  329000    310.53343   -1203.6836    229.86756   -973.81604    476.28965    15.097936    15.097936    15.097936            0            0            0 
  329100     297.4091   -1202.0423    220.15248   -981.88986   -184.79395    15.103918    15.103918    15.103918            0            0            0 
  329200    308.32438   -1216.4201    228.23234   -988.18777   -926.03822    15.108691    15.108691    15.108691            0            0            0 
  329300    296.64531   -1223.3925    219.58709   -1003.8054    1073.6009    15.004668    15.004668    15.004668            0            0            0 
  329400    296.40528   -1236.7091    219.40941   -1017.2997     1892.967    14.878543    14.878543    14.878543            0            0            0 
  329500    316.51912   -1235.9464    234.29837    -1001.648   -752.21524    15.029087    15.029087    15.029087            0            0            0 
  329600    308.92501   -1212.7111    228.67695   -984.03417    908.76275    14.957745    14.957745    14.957745            0            0            0 
  329700    311.61351   -1216.2762    230.66707   -985.60915    1660.2935    14.944497    14.944497    14.944497            0            0            0 
  329800    284.61387   -1192.5044    210.68101   -981.82344   -92.718006    15.056663    15.056663    15.056663            0            0            0 
  329900    300.29959   -1194.6222    222.29212   -972.33011   -1505.3976    15.108811    15.108811    15.108811            0            0            0 
  330000    284.96292   -1183.5547    210.93938   -972.61532     140.0521     15.02846     15.02846     15.02846            0            0            0 
  330100    283.74693    -1194.673    210.03927   -984.63372    15.915595    15.139027    15.139027    15.139027            0            0            0 
  330200    289.28139   -1172.0359    214.13606   -957.89985   -2406.1842    15.279493    15.279493    15.279493            0            0            0 
  330300    310.12853   -1179.0761    229.56784   -949.50829    314.49981    15.055189    15.055189    15.055189            0            0            0 
  330400    326.13095   -1175.7882    241.41338   -934.37477    2028.9921    14.985558    14.985558    14.985558            0            0            0 
  330500    293.06931   -1168.1673    216.94002   -951.22728   -1221.6389    15.268364    15.268364    15.268364            0            0            0 
  330600    312.40755   -1167.9789    231.25485   -936.72403    -895.5821    15.219773    15.219773    15.219773            0            0            0 
  330700    295.90326   -1186.4347     219.0378   -967.39686   -695.65718     15.20084     15.20084     15.20084            0            0            0 
  330800    312.95926   -1172.0189    231.66324   -940.35564   -911.16077    15.267677    15.267677    15.267677            0            0            0 
  330900    310.36767   -1188.1431    229.74485   -958.39828    1435.9456    15.055979    15.055979    15.055979            0            0            0 
  331000    299.73008   -1182.8829    221.87054   -961.01233    2290.0943    14.781477    14.781477    14.781477            0            0            0 
  331100    315.05318   -1187.1104    233.21323   -953.89721     1164.809    14.692748    14.692748    14.692748            0            0            0 
  331200    290.18167    -1170.144    214.80248   -955.34148   -828.84316    14.832114    14.832114    14.832114            0            0            0 
  331300    317.59955   -1166.4138    235.09814   -931.31566    147.34874    15.007636    15.007636    15.007636            0            0            0 
  331400    301.02191   -1151.3652     222.8268   -928.53838   -645.46267    15.056673    15.056673    15.056673            0            0            0 
  331500    323.53772   -1189.5865    239.49378   -950.09268   -643.09316    14.845488    14.845488    14.845488            0            0            0 
  331600    304.41448   -1203.6982     225.3381   -978.36013     2172.242    14.613812    14.613812    14.613812            0            0            0 
  331700    304.22698   -1219.5844     225.1993   -994.38507   -1008.5919     14.73083     14.73083     14.73083            0            0            0 
  331800    311.97876   -1227.6232    230.93744   -996.68571   -94.182638    14.871763    14.871763    14.871763            0            0            0 
  331900    282.69364   -1217.4582    209.25958   -1008.1986    966.12257    14.801572    14.801572    14.801572            0            0            0 
  332000    313.57269   -1210.3643    232.11732   -978.24696    815.36757    14.892341    14.892341    14.892341            0            0            0 
  332100    296.46674   -1205.7544    219.45491   -986.29952   -810.96523    14.959272    14.959272    14.959272            0            0            0 
  332200    283.16002   -1193.1632    209.60481   -983.55836   -2621.4853    15.070921    15.070921    15.070921            0            0            0 
  332300     307.5949   -1188.9185    227.69235   -961.22618    275.84577    14.948928    14.948928    14.948928            0            0            0 
  332400    309.56435   -1192.5252    229.15021   -963.37502   -638.11694    15.088753    15.088753    15.088753            0            0            0 
  332500    311.49454    -1186.843      230.579   -956.26396   -891.29939    15.058979    15.058979    15.058979            0            0            0 
  332600    300.00013   -1203.9945    222.07045     -981.924    -60.52297    14.885348    14.885348    14.885348            0            0            0 
  332700    294.43776   -1209.9692    217.95299   -992.01618   -1105.5281    15.031124    15.031124    15.031124            0            0            0 
  332800    325.89492   -1200.5778    241.23866   -959.33915   -289.88466    15.040196    15.040196    15.040196            0            0            0 
  332900    276.24606   -1189.3463    204.48686   -984.85948   -2384.2977    15.150167    15.150167    15.150167            0            0            0 
  333000    283.28497    -1231.284    209.69731   -1021.5867    820.38889     14.98126     14.98126     14.98126            0            0            0 
  333100    268.26548    -1240.588    198.57936   -1042.0086   -505.13486    14.988548    14.988548    14.988548            0            0            0 
  333200     285.9085   -1210.3708    211.63933   -998.73149    1304.8725    14.830188    14.830188    14.830188            0            0            0 
  333300     288.3043    -1213.418    213.41279   -1000.0052    274.55642     14.70705     14.70705     14.70705            0            0            0 
  333400    305.36777   -1239.0168    226.04376    -1012.973    2389.8376    14.630987    14.630987    14.630987            0            0            0 
  333500    291.94245   -1204.8058    216.10587   -988.69992    1016.5826    14.884038    14.884038    14.884038            0            0            0 
  333600    276.79284   -1187.0935    204.89161   -982.20187    1229.2984     14.80784     14.80784     14.80784            0            0            0 
  333700    297.11562   -1197.5785    219.93523   -977.64323   -2116.4734    15.025909    15.025909    15.025909            0            0            0 
  333800    310.35429   -1208.1335    229.73495   -978.39857   -29.627114    14.821032    14.821032    14.821032            0            0            0 
  333900     323.6811    -1208.063    239.59992   -968.46307    1268.7053    14.643917    14.643917    14.643917            0            0            0 
  334000    315.85374   -1179.3654    233.80584   -945.55953   -294.42695    14.799747    14.799747    14.799747            0            0            0 
  334100    325.26607     -1203.39    240.77317   -962.61688   -1586.5483    15.007197    15.007197    15.007197            0            0            0 
  334200    325.00801   -1211.6733    240.58214   -971.09121    1108.1457    14.938172    14.938172    14.938172            0            0            0 
  334300    305.98048   -1186.7786     226.4973   -960.28133   -19.513139     15.11025     15.11025     15.11025            0            0            0 
  334400    292.96842   -1191.0051    216.86533   -974.13979    1103.2199    15.013176    15.013176    15.013176            0            0            0 
  334500    302.78698   -1184.4664    224.13336     -960.333   -181.65406    15.026307    15.026307    15.026307            0            0            0 
  334600    308.32197   -1200.9127    228.23056   -972.68214   -438.42153     14.97523     14.97523     14.97523            0            0            0 
  334700     285.6107    -1187.103     211.4189   -975.68407    566.52882    14.955155    14.955155    14.955155            0            0            0 
  334800    309.60376   -1164.0867    229.17938    -934.9073    503.18942    15.265242    15.265242    15.265242            0            0            0 
  334900    301.02896   -1157.2693    222.83202   -934.43731   -1061.1652    15.385769    15.385769    15.385769            0            0            0 
  335000    309.47885   -1184.7572    229.08692   -955.67025   -18.661175     15.23269     15.23269     15.23269            0            0            0 
  335100    292.61423   -1182.3714    216.60315   -965.76824   -969.97898    15.175815    15.175815    15.175815            0            0            0 
  335200     281.7311   -1178.3884    208.54708   -969.84135   -21.219621    15.084642    15.084642    15.084642            0            0            0 
  335300    312.25218   -1193.9703    231.13984   -962.83047   -824.00916    15.173605    15.173605    15.173605            0            0            0 
  335400    311.90176   -1204.4547    230.88044   -973.57427   -1158.2496    15.148551    15.148551    15.148551            0            0            0 
  335500    299.44621   -1192.6999    221.66041   -971.03953    174.88894    15.052198    15.052198    15.052198            0            0            0 
  335600    290.56485   -1212.8424    215.08612   -997.75631    -933.0159    14.885796    14.885796    14.885796            0            0            0 
  335700    286.14051   -1231.6435    211.81108   -1019.8325    1900.6633    14.745111    14.745111    14.745111            0            0            0 
  335800    308.64391   -1221.9299    228.46887   -993.46103   -1851.7993      14.9047      14.9047      14.9047            0            0            0 
  335900    298.15657   -1191.2811    220.70578   -970.57529    1034.2638    14.943817    14.943817    14.943817            0            0            0 
  336000    302.93997   -1186.2222    224.24662   -961.97554   -233.04822     15.03867     15.03867     15.03867            0            0            0 
  336100    323.57136   -1178.8703    239.51868   -939.35166   -351.89776    14.933809    14.933809    14.933809            0            0            0 
  336200    347.09684   -1216.1901    256.93306   -959.25705   -232.43846    14.889208    14.889208    14.889208            0            0            0 
  336300    298.13387   -1197.8505    220.68898   -977.16155    98.996181    14.874713    14.874713    14.874713            0            0            0 
  336400    317.25776   -1210.5875    234.84514   -975.74236   -1445.9777    14.905895    14.905895    14.905895            0            0            0 
  336500    301.72967   -1225.7982    223.35071   -1002.4475   -1485.7276    14.968201    14.968201    14.968201            0            0            0 
  336600     295.0139   -1224.9731    218.37946   -1006.5936   -492.68933     14.82479     14.82479     14.82479            0            0            0 
  336700    306.46566   -1226.8254    226.85646   -999.96891    1393.3051    14.733063    14.733063    14.733063            0            0            0 
  336800     271.2441   -1208.2539    200.78424   -1007.4697    190.27673    15.004141    15.004141    15.004141            0            0            0 
  336900    285.62155   -1210.4982    211.42692   -999.07129    -1679.461    15.060453    15.060453    15.060453            0            0            0 
  337000    302.41698   -1212.8983    223.85948    -989.0388   -667.08588    15.009092    15.009092    15.009092            0            0            0 
  337100    315.51797   -1215.2795    233.55729   -981.72222    65.383335    15.117053    15.117053    15.117053            0            0            0 
  337200    301.94472   -1205.5268     223.5099   -982.01692   -586.81692    15.231673    15.231673    15.231673            0            0            0 
  337300    288.91188   -1203.8378    213.86254    -989.9753   -870.47053    15.070713    15.070713    15.070713            0            0            0 
  337400    276.83002   -1203.1802    204.91913   -998.26108    508.54489    15.059978    15.059978    15.059978            0            0            0 
  337500    305.50352   -1226.5886    226.14425   -1000.4443   -1157.9272    15.171799    15.171799    15.171799            0            0            0 
  337600    291.59696   -1205.9965    215.85013   -990.14636    1177.7151     15.10064     15.10064     15.10064            0            0            0 
  337700    281.87008   -1205.1603    208.64996   -996.51038    558.26765    15.011555    15.011555    15.011555            0            0            0 
  337800     300.1352   -1199.2591    222.17043    -977.0887    1446.4952    15.052991    15.052991    15.052991            0            0            0 
  337900    300.34598   -1205.2948    222.32646   -982.96831    2417.7169    14.961379    14.961379    14.961379            0            0            0 
  338000    321.61152   -1215.3743    238.06794   -977.30631   -818.05126    15.069524    15.069524    15.069524            0            0            0 
  338100    295.83596   -1196.6314    218.98798   -977.64337   -564.18123    15.197407    15.197407    15.197407            0            0            0 
  338200    306.79431   -1175.3194    227.09973    -948.2197    344.47001    15.262086    15.262086    15.262086            0            0            0 
  338300    304.25959   -1193.0924    225.22345   -967.86896   -2702.6908    15.260405    15.260405    15.260405            0            0            0 
  338400    296.62634    -1207.738    219.57305   -988.16495   -710.75745    14.986312    14.986312    14.986312            0            0            0 
  338500    305.99321   -1203.4419    226.50673   -976.93512    1536.2997    14.920351    14.920351    14.920351            0            0            0 
  338600    315.72018    -1224.768    233.70697   -991.06102    794.58379    14.985393    14.985393    14.985393            0            0            0 
  338700    277.76145   -1225.4109    205.60861   -1019.8023   -313.64659     15.09226     15.09226     15.09226            0            0            0 
  338800    264.62413   -1222.1466    195.88391   -1026.2627    2294.2382    14.934438    14.934438    14.934438            0            0            0 
  338900     277.4239   -1226.9211    205.35874   -1021.5624    -782.0517    14.952877    14.952877    14.952877            0            0            0 
  339000    311.21701   -1216.1372    230.37356   -985.76361   -725.95339    15.088501    15.088501    15.088501            0            0            0 
  339100    297.32182   -1226.0758    220.08787    -1005.988    -322.9192    15.034394    15.034394    15.034394            0            0            0 
  339200    274.25978   -1222.4885    203.01655    -1019.472    266.52171      15.0648      15.0648      15.0648            0            0            0 
  339300    264.20908   -1214.9284    195.57667   -1019.3517   -363.27721    15.238358    15.238358    15.238358            0            0            0 
  339400    281.13812   -1212.2808    208.10813   -1004.1727   -875.31406    15.201185    15.201185    15.201185            0            0            0 
  339500    300.88133   -1199.2761    222.72274   -976.55333     -2.48823    15.129158    15.129158    15.129158            0            0            0 
  339600    287.22348   -1200.2105    212.61273   -987.59773   -1239.9914    15.127874    15.127874    15.127874            0            0            0 
  339700    319.56237   -1189.2982    236.55109   -952.74713   -234.06128    15.054805    15.054805    15.054805            0            0            0 
  339800    283.35102   -1206.9491     209.7462   -997.20291    1128.6546    15.016495    15.016495    15.016495            0            0            0 
  339900    300.60004    -1165.708    222.51452   -943.19344   -526.03249    15.149797    15.149797    15.149797            0            0            0 
  340000    302.23208   -1182.0553    223.72261   -958.33273    217.46437    15.086004    15.086004    15.086004            0            0            0 
  340100    291.63642   -1149.0603    215.87933   -933.18097   -1734.3448    15.090155    15.090155    15.090155            0            0            0 
  340200    303.34606   -1189.9742    224.54722   -965.42696   -958.60299    15.057603    15.057603    15.057603            0            0            0 
  340300    305.13614   -1189.3378     225.8723   -963.46554    2748.0075    14.848326    14.848326    14.848326            0            0            0 
  340400    281.90287   -1193.1453    208.67423   -984.47107   -1062.7091    14.929983    14.929983    14.929983            0            0            0 
  340500    254.38731   -1190.7458    188.30626   -1002.4396    298.73493    14.878057    14.878057    14.878057            0            0            0 
  340600    320.22685   -1195.7969    237.04296   -958.75391   -1484.5875    14.974839    14.974839    14.974839            0            0            0 
  340700    276.15777     -1192.19    204.42151   -987.76852    1461.8674    14.903902    14.903902    14.903902            0            0            0 
  340800    288.85802   -1190.8748    213.82267    -977.0521    17.302856    14.879909    14.879909    14.879909            0            0            0 
  340900    295.88849   -1204.1665    219.02687   -985.13962    48.549889    14.744839    14.744839    14.744839            0            0            0 
  341000    294.47469   -1206.0821    217.98033   -988.10181   -1721.1799    14.805488    14.805488    14.805488            0            0            0 
  341100    283.22341   -1199.4018    209.65174   -989.75002    -752.0437    14.730707    14.730707    14.730707            0            0            0 
  341200    319.13267   -1241.9975    236.23301   -1005.7645    912.95336    14.662808    14.662808    14.662808            0            0            0 
  341300    277.92507   -1231.2684    205.72973   -1025.5386    445.88106    14.878946    14.878946    14.878946            0            0            0 
  341400    285.39204   -1215.9426    211.25704   -1004.6856   -1999.6213    15.052322    15.052322    15.052322            0            0            0 
  341500    287.79543   -1242.2129    213.03611   -1029.1768    829.20717    14.817503    14.817503    14.817503            0            0            0 
  341600    297.70485   -1231.7177     220.3714   -1011.3463    1259.3241    14.733923    14.733923    14.733923            0            0            0 
  341700    274.80231   -1221.0679    203.41815   -1017.6498   -1616.7478    15.010894    15.010894    15.010894            0            0            0 
  341800    292.69945   -1224.7275    216.66623   -1008.0613   -1220.9512    15.065183    15.065183    15.065183            0            0            0 
  341900    260.34009    -1203.884    192.71272   -1011.1713   -205.19128    14.970572    14.970572    14.970572            0            0            0 
  342000    303.48478   -1214.6761    224.64991   -990.02624    410.29737    14.938193    14.938193    14.938193            0            0            0 
  342100    284.41304   -1208.9638    210.53234   -998.43151   -160.46029     15.03541     15.03541     15.03541            0            0            0 
  342200    314.66181   -1257.2565    232.92353   -1024.3329   -501.34978    14.911876    14.911876    14.911876            0            0            0 
  342300    313.32543   -1236.7775    231.93429   -1004.8433   -79.346591    14.950222    14.950222    14.950222            0            0            0 
  342400    292.99914    -1229.662    216.88807   -1012.7739   -725.20139    15.075589    15.075589    15.075589            0            0            0 
  342500    319.76411   -1213.1995    236.70043   -976.49908    928.19123    15.038569    15.038569    15.038569            0            0            0 
  342600     297.1584   -1194.5773     219.9669   -974.61042     -86.6126    15.055787    15.055787    15.055787            0            0            0 
  342700     283.3699   -1181.7567    209.76018   -971.99657    398.10339    14.979613    14.979613    14.979613            0            0            0 
  342800    278.35339   -1187.4893    206.04678   -981.44255   -202.66032    15.184143    15.184143    15.184143            0            0            0 
  342900    303.87184   -1187.8259    224.93642   -962.88948   -508.12272    15.181157    15.181157    15.181157            0            0            0 
  343000    333.32493   -1175.3281    246.73861   -928.58944   -267.44735    15.252762    15.252762    15.252762            0            0            0 
  343100    308.08239   -1195.6807    228.05321   -967.62745   -337.67491     15.27082     15.27082     15.27082            0            0            0 
  343200    286.49364   -1193.3744    212.07248   -981.30193    1441.0632    15.159926    15.159926    15.159926            0            0            0 
  343300     268.3874   -1203.6235    198.66961   -1004.9539    464.91657    15.123471    15.123471    15.123471            0            0            0 
  343400    281.04255   -1222.9196    208.03739   -1014.8822   -253.78451    15.091226    15.091226    15.091226            0            0            0 
  343500    272.00572   -1201.4198    201.34802   -1000.0718    139.79293    15.191739    15.191739    15.191739            0            0            0 
  343600    307.18989   -1201.8058    227.39255   -974.41325   -509.60397    15.240469    15.240469    15.240469            0            0            0 
  343700    308.14688   -1183.6397    228.10095   -955.53873   -859.43416    15.233999    15.233999    15.233999            0            0            0 
  343800    306.78675   -1202.9886    227.09414   -975.89445   -1021.0218    15.298797    15.298797    15.298797            0            0            0 
  343900    297.89617   -1189.7581    220.51302   -969.24506   -513.31948    15.148744    15.148744    15.148744            0            0            0 
  344000    319.73534   -1189.4532    236.67913   -952.77405    2705.0822    14.936528    14.936528    14.936528            0            0            0 
  344100    326.58293    -1188.486    241.74795   -946.73801     1320.456    15.139075    15.139075    15.139075            0            0            0 
  344200    274.34026   -1157.6123    203.07612   -954.53619    794.05946    15.184375    15.184375    15.184375            0            0            0 
  344300    315.40751   -1177.4453    233.47552   -943.96983    854.15849    15.112015    15.112015    15.112015            0            0            0 
  344400    282.26012   -1183.6078    208.93868   -974.66914   -454.57239    15.187081    15.187081    15.187081            0            0            0 
  344500    316.11054   -1203.3208    233.99593   -969.32489    2586.6486    14.891409    14.891409    14.891409            0            0            0 
  344600    282.13433   -1163.4415    208.84556   -954.59591   -1202.1715    15.087179    15.087179    15.087179            0            0            0 
  344700    287.98576   -1206.4526    213.17699   -993.27565    639.18715    14.989903    14.989903    14.989903            0            0            0 
  344800    311.05478   -1185.9013    230.25348   -955.64786    347.60817    15.072929    15.072929    15.072929            0            0            0 
  344900    283.49293    -1192.968    209.85125    -983.1168   -1484.3049    15.168667    15.168667    15.168667            0            0            0 
  345000    287.74875   -1181.7402    213.00155   -968.73866   -1264.0761    15.208209    15.208209    15.208209            0            0            0 
  345100      282.996   -1181.7081     209.4834   -972.22466    959.22233    15.049744    15.049744    15.049744            0            0            0 
  345200    322.18307   -1178.0208    238.49103   -939.52973    1501.3807     15.06411     15.06411     15.06411            0            0            0 
  345300    313.93599   -1176.3799    232.38625   -943.99361    666.11366    15.005645    15.005645    15.005645            0            0            0 
  345400      323.802   -1182.2058    239.68941   -942.51643   -1085.5921    15.094366    15.094366    15.094366            0            0            0 
  345500    316.47869   -1156.0525    234.26845   -921.78408   -254.48051    15.165521    15.165521    15.165521            0            0            0 
  345600    280.57855   -1177.8755    207.69392   -970.18156   -1056.8566    15.100202    15.100202    15.100202            0            0            0 
  345700    312.33935    -1197.832    231.20436    -966.6276   -1852.0652    15.152075    15.152075    15.152075            0            0            0 
  345800    294.34062   -1210.0269    217.88108   -992.14586   -1494.0114    15.082288    15.082288    15.082288            0            0            0 
  345900    300.04286    -1189.738    222.10207   -967.63594   -996.24143    14.988167    14.988167    14.988167            0            0            0 
  346000    280.27758   -1189.4102    207.47113   -981.93903    945.73298    14.995227    14.995227    14.995227            0            0            0 
  346100    293.50282   -1199.1405    217.26091   -981.87959    703.65249    14.910519    14.910519    14.910519            0            0            0 
  346200    289.40447   -1211.4536    214.22717   -997.22638   -1285.0092    15.083198    15.083198    15.083198            0            0            0 
  346300     308.1209   -1190.6404    228.08172   -962.55868    424.25298    15.148584    15.148584    15.148584            0            0            0 
  346400    283.22094   -1168.9417    209.64991   -959.29182    193.01291    15.275191    15.275191    15.275191            0            0            0 
  346500    318.55836   -1201.2473    235.80789   -965.43943    38.497244    15.265286    15.265286    15.265286            0            0            0 
  346600    306.35815   -1186.0245    226.77687   -959.24758    670.22644    15.388377    15.388377    15.388377            0            0            0 
  346700    296.49894   -1209.8904    219.47874   -990.41163    623.84388    15.254527    15.254527    15.254527            0            0            0 
  346800    299.75726   -1189.9913    221.89066   -968.10067   -1062.9944    15.326717    15.326717    15.326717            0            0            0 
  346900    343.76316   -1213.4117    254.46535   -958.94637    2078.7853    15.164424    15.164424    15.164424            0            0            0 
  347000    315.07313   -1191.5776      233.228   -958.34961    -850.4008    15.376981    15.376981    15.376981            0            0            0 
  347100    336.54871   -1207.6741    249.12496   -958.54918   -1083.9088    15.441942    15.441942    15.441942            0            0            0 
  347200    293.40881   -1203.6363    217.19133   -986.44495    927.19405    15.289482    15.289482    15.289482            0            0            0 
  347300    317.55228   -1188.5463    235.06315   -953.48317   -2102.9342    15.139289    15.139289    15.139289            0            0            0 
  347400    309.11831     -1205.26    228.82004   -976.43995   -386.96844    15.004971    15.004971    15.004971            0            0            0 
  347500    306.28235   -1194.8919    226.72076   -968.17111    595.96931    15.093162    15.093162    15.093162            0            0            0 
  347600    303.56719   -1209.7649    224.71091   -985.05398    1144.4625    14.952847    14.952847    14.952847            0            0            0 
  347700    298.15009   -1199.1161    220.70098   -978.41515    1784.0642    14.886848    14.886848    14.886848            0            0            0 
  347800    286.93122   -1186.8183    212.39639   -974.42194   -255.76391    15.020484    15.020484    15.020484            0            0            0 
  347900    293.07563   -1186.6119    216.94469   -969.66726    1879.8087     14.91211     14.91211     14.91211            0            0            0 
  348000    296.05612   -1176.2872    219.15095   -957.13625    516.87135    15.015779    15.015779    15.015779            0            0            0 
  348100     296.9878   -1160.5373    219.84061   -940.69667    719.89256     15.23861     15.23861     15.23861            0            0            0 
  348200    319.24009   -1184.7387    236.31252   -948.42618   -518.40363    15.333953    15.333953    15.333953            0            0            0 
  348300    310.99649   -1184.3451    230.21033   -954.13481   -1071.9915    15.132103    15.132103    15.132103            0            0            0 
  348400    295.49974   -1185.0044     218.7391   -966.26528    852.65403    14.878745    14.878745    14.878745            0            0            0 
  348500    289.98167   -1193.8481    214.65443   -979.19368     -1098.31    15.050171    15.050171    15.050171            0            0            0 
  348600    296.50448   -1180.4398    219.48284   -960.95693    -717.2586    15.176942    15.176942    15.176942            0            0            0 
  348700    319.22986   -1180.0097    236.30495   -943.70476   -31.118526    15.048894    15.048894    15.048894            0            0            0 
  348800     312.0503   -1207.3499    230.99039   -976.35949   -103.98155    14.968699    14.968699    14.968699            0            0            0 
  348900    297.18563    -1205.343    219.98706   -985.35594   -1719.4129    15.148142    15.148142    15.148142            0            0            0 
  349000    257.43971   -1192.6625    190.56575   -1002.0968   -661.10099    15.187582    15.187582    15.187582            0            0            0 
  349100    308.78345   -1225.0525    228.57216   -996.48029    1235.7941    14.916666    14.916666    14.916666            0            0            0 
  349200    317.45491   -1209.8246    234.99107   -974.83355    1589.6319    15.033735    15.033735    15.033735            0            0            0 
  349300    288.37961   -1187.5491    213.46853   -974.08058    159.40014    15.196443    15.196443    15.196443            0            0            0 
  349400    317.33507    -1177.325    234.90237   -942.42267    418.97217    15.212639    15.212639    15.212639            0            0            0 
  349500    311.68923   -1182.0572    230.72312   -951.33412    966.68669    15.188805    15.188805    15.188805            0            0            0 
  349600    282.37369    -1184.783    209.02274    -975.7603    1173.8361    14.986073    14.986073    14.986073            0            0            0 
  349700    305.36571   -1182.9449    226.04223   -956.90265    1119.2341    15.066696    15.066696    15.066696            0            0            0 
  349800    297.75153   -1183.9499    220.40596    -963.5439     472.4712    15.113851    15.113851    15.113851            0            0            0 
  349900    302.04208   -1194.0166    223.58197   -970.43461    403.33392    14.982134    14.982134    14.982134            0            0            0 
  350000    312.46553   -1203.1774    231.29777   -971.87967    977.63137    14.852677    14.852677    14.852677            0            0            0 
  350100    322.99223   -1219.8721    239.08999   -980.78213    149.72032     14.89861     14.89861     14.89861            0            0            0 
  350200    304.38753   -1201.2255    225.31815   -975.90731   -431.45245    15.100756    15.100756    15.100756            0            0            0 
  350300    302.99887   -1190.5482    224.29021   -966.25797    377.77166    15.114989    15.114989    15.114989            0            0            0 
  350400    303.94964   -1193.6567    224.99401    -968.6627    -711.5318    15.125228    15.125228    15.125228            0            0            0 
  350500    304.40878   -1196.3753    225.33388   -971.04146    876.85911    15.110856    15.110856    15.110856            0            0            0 
  350600    285.57287   -1172.7112    211.39089   -961.32027    461.83766    15.083251    15.083251    15.083251            0            0            0 
  350700    323.30127   -1205.5959    239.31876   -966.27713   -1504.3424    15.089272    15.089272    15.089272            0            0            0 
  350800     305.1168   -1205.3702    225.85798   -979.51223   -146.98577     15.04198     15.04198     15.04198            0            0            0 
  350900    265.48193   -1232.5405    196.51889   -1036.0216   -286.58803    15.004281    15.004281    15.004281            0            0            0 
  351000    273.57582    -1225.762    202.51026   -1023.2517    1056.2837    14.874551    14.874551    14.874551            0            0            0 
  351100     272.0409        -1238    201.37406   -1036.6259    1494.9802    14.890795    14.890795    14.890795            0            0            0 
  351200    299.59852   -1219.0008    221.77316   -997.22768   -836.74862    15.045137    15.045137    15.045137            0            0            0 
  351300    286.76516   -1225.0574    212.27346   -1012.7839   -1048.1938    15.071505    15.071505    15.071505            0            0            0 
  351400    269.90164   -1234.4312     199.7905   -1034.6407    1517.1795    14.894432    14.894432    14.894432            0            0            0 
  351500    299.59692   -1231.8811    221.77198   -1010.1091    1157.6779    14.949744    14.949744    14.949744            0            0            0 
  351600    286.31009   -1197.5979     211.9366   -985.66134   -1520.4101    15.117086    15.117086    15.117086            0            0            0 
  351700    304.15026   -1214.9376    225.14252   -989.79507   -869.67842    15.152243    15.152243    15.152243            0            0            0 
  351800    277.87786   -1209.4387    205.69478   -1003.7439    819.82524    15.004806    15.004806    15.004806            0            0            0 
  351900    286.25388   -1202.8115    211.89499    -990.9165    1107.0459    15.036405    15.036405    15.036405            0            0            0 
  352000    291.59715   -1210.1771    215.85027   -994.32686   -2102.1097    15.102317    15.102317    15.102317            0            0            0 
  352100    303.06748   -1237.8664      224.341   -1013.5254    1330.4034    14.906424    14.906424    14.906424            0            0            0 
  352200    292.87573   -1226.8524    216.79672   -1010.0556    2191.5091    15.043849    15.043849    15.043849            0            0            0 
  352300    291.99041   -1234.7594    216.14137   -1018.6181   -2135.5252    15.089772    15.089772    15.089772            0            0            0 
  352400    292.40516   -1212.5659    216.44839    -996.1175    36.486128    14.923454    14.923454    14.923454            0            0            0 
  352500      319.622   -1226.7928    236.59523   -990.19759    440.21241    15.015755    15.015755    15.015755            0            0            0 
  352600     292.1115   -1213.7755    216.23101    -997.5445   -88.519405    14.933766    14.933766    14.933766            0            0            0 
  352700    263.80382   -1182.1871    195.27669    -986.9104    111.34501     14.80604     14.80604     14.80604            0            0            0 
  352800    311.28232   -1222.7672    230.42191    -992.3453   -413.70207    14.723698    14.723698    14.723698            0            0            0 
  352900    307.34429   -1193.0179    227.50685   -965.51106    1113.9931    14.705739    14.705739    14.705739            0            0            0 
  353000    306.75714   -1183.5561    227.07222   -956.48391   -541.71123    14.935404    14.935404    14.935404            0            0            0 
  353100    298.13931   -1190.9975      220.693   -970.30454   -555.90383    14.842013    14.842013    14.842013            0            0            0 
  353200     307.3683   -1189.1102    227.52462   -961.58562    21.855944    14.762568    14.762568    14.762568            0            0            0 
  353300    286.53633   -1188.4499    212.10408   -976.34583    808.10987    14.842767    14.842767    14.842767            0            0            0 
  353400    344.62775   -1205.5106    255.10535   -950.40529   -391.84129    14.923705    14.923705    14.923705            0            0            0 
  353500    317.01678   -1195.9875    234.66676   -961.32076   -1246.3705    15.049019    15.049019    15.049019            0            0            0 
  353600     316.1062   -1195.6094    233.99271   -961.61672   -1724.5772    14.930896    14.930896    14.930896            0            0            0 
  353700     322.1256   -1197.2836    238.44848   -958.83516   -676.79405    14.975371    14.975371    14.975371            0            0            0 
  353800    287.11517    -1175.742    212.53255   -963.20941    551.24579    15.073947    15.073947    15.073947            0            0            0 
  353900    313.05067   -1201.1564     231.7309    -969.4255    2066.2915    14.958277    14.958277    14.958277            0            0            0 
  354000    324.66388   -1192.8872     240.3274   -952.55976    620.27861     14.88316     14.88316     14.88316            0            0            0 
  354100    300.78018   -1197.9078    222.64787    -975.2599   -973.70683    14.939847    14.939847    14.939847            0            0            0 
  354200    304.13506   -1200.9864    225.13126   -975.85516    902.00694    14.903379    14.903379    14.903379            0            0            0 
  354300    324.84047   -1242.7737    240.45812   -1002.3156   -956.15468    14.837091    14.837091    14.837091            0            0            0 
  354400    269.20078   -1202.1852    199.27171   -1002.9135    937.66867    14.782938    14.782938    14.782938            0            0            0 
  354500     292.5708   -1232.0922      216.571   -1015.5212   -3.6419242    14.771253    14.771253    14.771253            0            0            0 
  354600    283.12493   -1212.6058    209.57884    -1003.027     1237.458    14.888255    14.888255    14.888255            0            0            0 
  354700    274.43813   -1201.0284    203.14857   -997.87981    1811.4337    14.887932    14.887932    14.887932            0            0            0 
  354800     283.6038   -1240.2939    209.93332   -1030.3606   -1165.7444    14.823992    14.823992    14.823992            0            0            0 
  354900    292.86728   -1209.3132    216.79046   -992.52272    1764.7048    14.739184    14.739184    14.739184            0            0            0 
  355000    266.27646   -1197.8364    197.10702   -1000.7294   -783.92193    14.993586    14.993586    14.993586            0            0            0 
  355100    302.10709   -1215.0566    223.63009   -991.42654    412.29222    14.935489    14.935489    14.935489            0            0            0 
  355200     282.6025   -1208.1639    209.19212   -998.97177   -412.64345    14.904473    14.904473    14.904473            0            0            0 
  355300    310.88535   -1213.0128    230.12806   -982.88475    2272.6293    14.735882    14.735882    14.735882            0            0            0 
  355400    291.47408   -1201.5477    215.75917   -985.78857   -3140.7443    14.942801    14.942801    14.942801            0            0            0 
  355500    315.04754   -1199.7297    233.20905   -966.52062    1838.9688    14.712058    14.712058    14.712058            0            0            0 
  355600    319.89891   -1191.7988    236.80021   -954.99864   -766.67014    14.927809    14.927809    14.927809            0            0            0 
  355700    308.48721   -1207.7269    228.35287   -979.37402    773.65733    14.991307    14.991307    14.991307            0            0            0 
  355800    299.87762   -1172.8345    221.97976   -950.85473   -81.250209    15.073453    15.073453    15.073453            0            0            0 
  355900    303.04864   -1208.5146    224.32706   -984.18752    59.290417    14.957603    14.957603    14.957603            0            0            0 
  356000    315.38955   -1217.5773    233.46222   -984.11511   -685.90798    14.973605    14.973605    14.973605            0            0            0 
  356100    300.24865   -1182.5107    222.25441   -960.25625    1437.8415    14.840817    14.840817    14.840817            0            0            0 
  356200    291.73942   -1204.5747    215.95558   -988.61908    329.56809     14.91659     14.91659     14.91659            0            0            0 
  356300    308.16581   -1214.9588    228.11496   -986.84381    198.57941    15.016078    15.016078    15.016078            0            0            0 
  356400    292.80173   -1209.8361    216.74194   -993.09414   -1312.1853    15.123685    15.123685    15.123685            0            0            0 
  356500    312.34479   -1215.9685    231.20838   -984.76011    1796.8964     14.88499     14.88499     14.88499            0            0            0 
  356600     274.7453   -1202.3426    203.37595   -998.96666    1158.7907    14.891562    14.891562    14.891562            0            0            0 
  356700    301.65836   -1240.6394    223.29792   -1017.3414    660.84246    14.820954    14.820954    14.820954            0            0            0 
  356800    288.35865    -1243.189    213.45302    -1029.736    1210.9828    14.607484    14.607484    14.607484            0            0            0 
  356900    284.38271   -1188.5553    210.50989   -978.04544   -365.88487    14.777912    14.777912    14.777912            0            0            0 
  357000    313.01581   -1220.7439     231.7051   -989.03884    938.58686    14.765265    14.765265    14.765265            0            0            0 
  357100      284.805   -1210.0629    210.82249   -999.24039   -33.770141    14.793021    14.793021    14.793021            0            0            0 
  357200    282.22923   -1202.2157    208.91581   -993.29984    1997.2636    14.739058    14.739058    14.739058            0            0            0 
  357300     300.0037   -1235.2999    222.07309   -1013.2269    345.85482    14.737602    14.737602    14.737602            0            0            0 
  357400    296.14788   -1230.6049    219.21888   -1011.3861    1014.3339    14.644189    14.644189    14.644189            0            0            0 
  357500    283.19821   -1193.5183    209.63308    -983.8852   -2821.0641    15.003356    15.003356    15.003356            0            0            0 
  357600    329.78523   -1208.7822     244.1184   -964.66379    668.70899    14.827995    14.827995    14.827995            0            0            0 
  357700    310.75855   -1231.0104     230.0342   -1000.9762    1729.5653    14.765961    14.765961    14.765961            0            0            0 
  357800    298.30151   -1228.0942    220.81307   -1007.2812   -751.97057    14.875547    14.875547    14.875547            0            0            0 
  357900    267.94851   -1203.4247    198.34473     -1005.08    2623.5307    14.714988    14.714988    14.714988            0            0            0 
  358000     293.5503   -1211.0159    217.29606   -993.71982   -806.72971      14.8781      14.8781      14.8781            0            0            0 
  358100    294.21665   -1216.1345    217.78931   -998.34517    1515.7411    14.683536    14.683536    14.683536            0            0            0 
  358200    303.21291   -1221.7093    224.44866   -997.26066     1445.901    14.871653    14.871653    14.871653            0            0            0 
  358300     323.6423   -1209.9808     239.5712   -970.40963    1882.2711    14.967886    14.967886    14.967886            0            0            0 
  358400    327.24186   -1189.5717    242.23571   -947.33601   -516.83686    15.158198    15.158198    15.158198            0            0            0 
  358500     296.9039   -1226.2876    219.77851   -1006.5091    1511.8563    14.987454    14.987454    14.987454            0            0            0 
  358600    337.13187   -1237.4379    249.55664    -987.8813   -116.26073    14.977358    14.977358    14.977358            0            0            0 
  358700    295.19789   -1220.9225    218.51566   -1002.4068    -1716.816    15.019475    15.019475    15.019475            0            0            0 
  358800    302.54737   -1225.6604      223.956   -1001.7044   -494.87156    15.006813    15.006813    15.006813            0            0            0 
  358900    307.23594   -1199.2134    227.42664   -971.78676   -2196.0664    15.157596    15.157596    15.157596            0            0            0 
  359000    299.80472   -1186.7472     221.9258   -964.82142    91.983752    14.905064    14.905064    14.905064            0            0            0 
  359100    330.17229   -1208.8355    244.40492   -964.43062    542.10825    14.900462    14.900462    14.900462            0            0            0 
  359200    297.43047   -1212.9117     220.1683   -992.74341   -1709.0576    15.085869    15.085869    15.085869            0            0            0 
  359300    302.09916   -1200.3986    223.62422   -976.77441    504.74036    14.965576    14.965576    14.965576            0            0            0 
  359400    322.53738   -1205.2764    238.75329   -966.52314   -874.56858    15.106291    15.106291    15.106291            0            0            0 
  359500    307.81137   -1194.3345    227.85259   -966.48191    414.83726    15.098864    15.098864    15.098864            0            0            0 
  359600     280.8361   -1197.7347    207.88457   -989.85012    1053.9352    14.844128    14.844128    14.844128            0            0            0 
  359700    319.02261   -1208.6357    236.15154    -972.4842    691.51711     14.86163     14.86163     14.86163            0            0            0 
  359800    322.20206   -1206.6079    238.50508   -968.10284   -524.36471    14.903878    14.903878    14.903878            0            0            0 
  359900    288.65862   -1210.5281    213.67507   -996.85304   -258.74222    14.798873    14.798873    14.798873            0            0            0 
  360000    289.63168   -1194.7426    214.39536   -980.34727    67.547355    14.761937    14.761937    14.761937            0            0            0 
  360100    331.92545   -1229.0877    245.70267   -983.38501   -953.55228    14.800545    14.800545    14.800545            0            0            0 
  360200     318.2725   -1226.0341    235.59628   -990.43777   -802.89628    14.900985    14.900985    14.900985            0            0            0 
  360300    265.33073   -1201.7022    196.40696   -1005.2953   -2354.1741    15.084713    15.084713    15.084713            0            0            0 
  360400    294.70621    -1211.827     218.1517    -993.6753   -131.60063    15.012754    15.012754    15.012754            0            0            0 
  360500    291.67085   -1192.9663    215.90483   -977.06143    1365.9427    14.929844    14.929844    14.929844            0            0            0 
  360600    291.77855    -1197.963    215.98455   -981.97843      1004.06    14.855492    14.855492    14.855492            0            0            0 
  360700    291.25965   -1194.1755    215.60044   -978.57505   -6.7737938    15.002381    15.002381    15.002381            0            0            0 
  360800    280.38344   -1194.5056     207.5495   -986.95614   -570.61167    15.097409    15.097409    15.097409            0            0            0 
  360900     291.4906   -1208.5657     215.7714   -992.79426   -148.85061    15.107563    15.107563    15.107563            0            0            0 
  361000    322.19783    -1214.281    238.50195   -975.77904    310.90589    15.060621    15.060621    15.060621            0            0            0 
  361100    291.52381   -1192.5098    215.79598   -976.71384    1347.8459    15.008929    15.008929    15.008929            0            0            0 
  361200    282.29408   -1197.9625    208.96381   -988.99867   -654.61299    15.040844    15.040844    15.040844            0            0            0 
  361300    285.94745   -1219.2857    211.66817   -1007.6176    2253.9623    14.828179    14.828179    14.828179            0            0            0 
  361400    277.83546   -1191.1085    205.66339    -985.4451    1775.1305     14.95637     14.95637     14.95637            0            0            0 
  361500    288.92761   -1186.7771    213.87418    -972.9029   -1176.5203    15.021709    15.021709    15.021709            0            0            0 
  361600    305.26287   -1195.8476    225.96611   -969.88146   -1413.3012    14.987345    14.987345    14.987345            0            0            0 
  361700    295.03743   -1186.3631    218.39689   -967.96623    1894.1602    14.999176    14.999176    14.999176            0            0            0 
  361800    342.84639   -1181.4718    253.78672   -927.68507   -1508.7139    15.252155    15.252155    15.252155            0            0            0 
  361900    303.54235   -1149.9832    224.69251   -925.29071    538.33236    15.218432    15.218432    15.218432            0            0            0 
  362000    316.58092   -1165.2777    234.34412    -930.9336   -290.00375    15.134237    15.134237    15.134237            0            0            0 
  362100    302.96192   -1181.7863    224.26287   -957.52341    3224.5692    14.800944    14.800944    14.800944            0            0            0 
  362200    321.28998   -1197.4396    237.82993   -959.60966   -898.53701    14.926384    14.926384    14.926384            0            0            0 
  362300    294.89233   -1195.1799    218.28948   -976.89045   -798.67863     14.95327     14.95327     14.95327            0            0            0 
  362400    303.15174   -1193.9396    224.40338   -969.53621   -1692.5557    15.033897    15.033897    15.033897            0            0            0 
  362500    300.11523   -1196.2425    222.15564    -974.0869    2112.1253    14.825403    14.825403    14.825403            0            0            0 
  362600    306.77858   -1204.2036    227.08809   -977.11546   -97.996718    14.805197    14.805197    14.805197            0            0            0 
  362700    284.08311   -1222.5949    210.28812   -1012.3068   -135.78824    14.745185    14.745185    14.745185            0            0            0 
  362800    308.55825   -1212.9922    228.40546   -984.58673    712.01501    14.696387    14.696387    14.696387            0            0            0 
  362900    310.89018   -1204.0696    230.13163   -973.93797    749.83754    14.839391    14.839391    14.839391            0            0            0 
  363000     311.3599   -1220.9644    230.47934   -990.48508    280.40775    14.888401    14.888401    14.888401            0            0            0 
  363100    304.07805   -1197.1617    225.08906   -972.07261   -1319.0351    14.925287    14.925287    14.925287            0            0            0 
  363200    320.31154   -1196.7604    237.10565   -959.65479    388.57896    14.766657    14.766657    14.766657            0            0            0 
  363300    318.40655   -1183.2263    235.69551   -947.53082   -1579.6307    14.987635    14.987635    14.987635            0            0            0 
  363400    321.30923   -1186.0678    237.84417   -948.22358   -637.35256    15.051665    15.051665    15.051665            0            0            0 
  363500    283.22789   -1188.4705    209.65506   -978.81548   -1396.2954    14.922369    14.922369    14.922369            0            0            0 
  363600    313.01231   -1186.8767    231.70251   -955.17419    1158.4828     14.70332     14.70332     14.70332            0            0            0 
  363700    291.79348   -1204.1671     215.9956   -988.17152    -891.1105    14.704252    14.704252    14.704252            0            0            0 
  363800    335.08256   -1200.5027    248.03967   -952.46299    1345.7089    14.763135    14.763135    14.763135            0            0            0 
  363900    315.20216   -1184.2915    233.32351   -950.96798   -520.63613    15.082693    15.082693    15.082693            0            0            0 
  364000    289.85173   -1180.8141    214.55825   -966.25584    1483.8277    15.025779    15.025779    15.025779            0            0            0 
  364100    301.12547   -1218.2301    222.90346   -995.32665    470.13621    14.910633    14.910633    14.910633            0            0            0 
  364200    311.61929    -1210.749    230.67135   -980.07762    276.39126    14.832488    14.832488    14.832488            0            0            0 
  364300    318.67072    -1231.373    235.89106   -995.48198   -1648.7637    14.904162    14.904162    14.904162            0            0            0 
  364400    273.67732   -1226.5713     202.5854   -1023.9859   -533.06742     14.93299     14.93299     14.93299            0            0            0 
  364500    270.79051   -1226.0021    200.44848   -1025.5536    177.50123    14.929914    14.929914    14.929914            0            0            0 
  364600    303.16278   -1237.7375    224.41155    -1013.326   -1541.5942    14.973476    14.973476    14.973476            0            0            0 
  364700    290.01342   -1248.1351    214.67794   -1033.4571   -899.68113    14.822309    14.822309    14.822309            0            0            0 
  364800    300.02972   -1234.8417    222.09235   -1012.7493   -168.73833    14.920802    14.920802    14.920802            0            0            0 
  364900    296.20801   -1214.9965    219.26339   -995.73316    4080.0254    14.789228    14.789228    14.789228            0            0            0 
  365000    294.61672   -1236.0835    218.08546    -1017.998    -647.8278    14.911042    14.911042    14.911042            0            0            0 
  365100    302.21558   -1201.6753     223.7104   -977.96493   -1394.3271       14.941       14.941       14.941            0            0            0 
  365200      317.252   -1213.9726    234.84087   -979.13172    932.83208     14.86135     14.86135     14.86135            0            0            0 
  365300    305.43358   -1213.8607    226.09247   -987.76824   -1802.8543    14.953253    14.953253    14.953253            0            0            0 
  365400    281.54833   -1236.4099    208.41179   -1027.9981    1295.6853     14.71408     14.71408     14.71408            0            0            0 
  365500     293.2449   -1224.4417    217.06999   -1007.3717   -438.11813    14.781068    14.781068    14.781068            0            0            0 
  365600    259.42607   -1210.8094    192.03612   -1018.7732    913.55464    14.914616    14.914616    14.914616            0            0            0 
  365700     287.3581   -1220.9387    212.71238   -1008.2263    322.26519    14.807351    14.807351    14.807351            0            0            0 
  365800     295.9646   -1211.4399    219.08321   -992.35667    1125.6623    14.822267    14.822267    14.822267            0            0            0 
  365900    304.72011   -1218.8846    225.56434   -993.32023    1312.6273    14.894573    14.894573    14.894573            0            0            0 
  366000     307.4522   -1244.1788    227.58672    -1016.592   -1339.1858    14.779511    14.779511    14.779511            0            0            0 
  366100     303.4653   -1236.3464    224.63549    -1011.711   -1500.7507    14.738504    14.738504    14.738504            0            0            0 
  366200    300.36512   -1218.6625    222.34062   -996.32192    540.42562    14.807657    14.807657    14.807657            0            0            0 
  366300    301.02872   -1207.7544    222.83184    -984.9226    1847.0477    14.751256    14.751256    14.751256            0            0            0 
  366400    313.75203    -1207.887    232.25007    -975.6369     79.93925    14.718833    14.718833    14.718833            0            0            0 
  366500    334.91217   -1200.0115    247.91354   -952.09794   -355.15599    14.752378    14.752378    14.752378            0            0            0 
  366600    299.93733   -1167.7719    222.02396   -945.74799    1538.7964    14.767334    14.767334    14.767334            0            0            0 
  366700    322.75807   -1191.4215    238.91665    -952.5048    340.85079    14.967547    14.967547    14.967547            0            0            0 
  366800    328.10612   -1198.0477    242.87546   -955.17228    305.83194    15.005967    15.005967    15.005967            0            0            0 
  366900    295.07271   -1198.5367      218.423   -980.11368    122.53375    15.260205    15.260205    15.260205            0            0            0 
  367000    302.24686   -1191.1176    223.73355   -967.38407    94.608766    15.272218    15.272218    15.272218            0            0            0 
  367100    295.62766   -1209.0275    218.83379    -990.1937     -999.888    15.230948    15.230948    15.230948            0            0            0 
  367200    292.87964   -1194.5996    216.79961   -977.80002   -385.27798    15.097705    15.097705    15.097705            0            0            0 
  367300    315.94471   -1199.4901    233.87317   -965.61692    -497.8168    15.200495    15.200495    15.200495            0            0            0 
  367400    310.18585   -1200.7407    229.61027   -971.13039   -1846.1063     15.18295     15.18295     15.18295            0            0            0 
  367500    321.76128   -1212.8966     238.1788    -974.7178    344.87555    14.980257    14.980257    14.980257            0            0            0 
  367600    301.88908   -1184.1315    223.46871   -960.66277   -754.36626    15.058468    15.058468    15.058468            0            0            0 
  367700     304.0454   -1200.3002     225.0649   -975.23531    1592.6018    14.908996    14.908996    14.908996            0            0            0 
  367800    279.88049   -1215.0874    207.17719   -1007.9102    2952.1675    14.859985    14.859985    14.859985            0            0            0 
  367900    269.92469   -1223.4964    199.80756   -1023.6889    626.95592    15.043053    15.043053    15.043053            0            0            0 
  368000    280.23258   -1202.4821    207.43783    -995.0443    1152.1129    15.006669    15.006669    15.006669            0            0            0 
  368100    300.53256   -1216.7453    222.46457   -994.28071   -1652.9822    15.041511    15.041511    15.041511            0            0            0 
  368200    317.25304   -1213.1492    234.84165   -978.30754    1764.8541    14.951787    14.951787    14.951787            0            0            0 
  368300    293.33577    -1195.053    217.13725   -977.91579    305.52246    15.172506    15.172506    15.172506            0            0            0 
  368400    299.05646   -1210.4365    221.37191   -989.06464    2862.6606    14.974623    14.974623    14.974623            0            0            0 
  368500    312.64487   -1223.9761    231.43052   -992.54555   -698.97349    15.104579    15.104579    15.104579            0            0            0 
  368600    320.87264   -1227.8974      237.521   -990.37641   -104.95201    15.026046    15.026046    15.026046            0            0            0 
  368700    310.68853    -1229.805    229.98237   -999.82267   -1096.9676    14.938302    14.938302    14.938302            0            0            0 
  368800    283.24652    -1250.724    209.66885   -1041.0551    4065.8537    14.613887    14.613887    14.613887            0            0            0 
  368900    283.95285   -1215.8942     210.1917   -1005.7025   -1077.1225    14.923238    14.923238    14.923238            0            0            0 
  369000    289.08743   -1234.6586    213.99249   -1020.6661    1591.2063    14.817949    14.817949    14.817949            0            0            0 
  369100    272.00965   -1200.0732    201.35093    -998.7223    575.79762    14.871197    14.871197    14.871197            0            0            0 
  369200    298.16898   -1202.4554    220.71496   -981.74044    676.87865     14.88408     14.88408     14.88408            0            0            0 
  369300    294.72296   -1223.1832     218.1641   -1005.0191    229.77046    14.907727    14.907727    14.907727            0            0            0 
  369400    311.60855    -1219.079     230.6634   -988.41557   -1701.4207    15.043006    15.043006    15.043006            0            0            0 
  369500    290.13145   -1197.2119    214.76531   -982.44664   -621.07283    15.071844    15.071844    15.071844            0            0            0 
  369600    291.02798   -1218.2364    215.42895   -1002.8074    3051.5863      14.8379      14.8379      14.8379            0            0            0 
  369700    271.88411   -1183.2363      201.258   -981.97825    934.23644    15.087742    15.087742    15.087742            0            0            0 
  369800    289.94553   -1205.7558    214.62768   -991.12812    976.52086    15.034741    15.034741    15.034741            0            0            0 
  369900    286.91483   -1209.1741    212.38425   -996.78988   -874.06144    15.123409    15.123409    15.123409            0            0            0 
  370000    290.14253   -1233.7454    214.77351   -1018.9719    235.76292    14.910357    14.910357    14.910357            0            0            0 
  370100    289.91141   -1219.9707    214.60243   -1005.3683    608.10879    14.896706    14.896706    14.896706            0            0            0 
  370200    305.42919    -1215.841    226.08923   -989.75181   -624.47693    14.888282    14.888282    14.888282            0            0            0 
  370300    285.34404   -1200.5395     211.2215   -989.31801    348.94223    14.823003    14.823003    14.823003            0            0            0 
  370400    310.00814   -1214.1112    229.47872   -984.63252    2160.2527    14.909676    14.909676    14.909676            0            0            0 
  370500    308.15205   -1196.9655    228.10478    -968.8607   -487.44093    15.040159    15.040159    15.040159            0            0            0 
  370600    269.79096   -1183.2714    199.70858   -983.56278   -863.37786    15.075617    15.075617    15.075617            0            0            0 
  370700    293.60519     -1216.88    217.33669    -999.5433    1909.8894    14.795756    14.795756    14.795756            0            0            0 
  370800    326.60028   -1213.1565    241.76079   -971.39571   -1292.2555    14.951192    14.951192    14.951192            0            0            0 
  370900    308.14109   -1221.9102    228.09667    -993.8135   -1061.7642    14.918652    14.918652    14.918652            0            0            0 
  371000    294.70186   -1227.5425    218.14848   -1009.3941    537.09642    14.942264    14.942264    14.942264            0            0            0 
  371100    277.81296   -1226.2964    205.64673   -1020.6497   -278.61471    14.955692    14.955692    14.955692            0            0            0 
  371200    290.77557   -1252.6785     215.2421   -1037.4364   -769.74681    14.917513    14.917513    14.917513            0            0            0 
  371300    286.91333   -1224.8253    212.38315   -1012.4421    2464.6391    14.790561    14.790561    14.790561            0            0            0 
  371400    311.42908   -1248.5649    230.53055   -1018.0344   -1733.6282    14.872526    14.872526    14.872526            0            0            0 
  371500    306.36218   -1251.7948    226.77985   -1025.0149   -540.65755    14.905184    14.905184    14.905184            0            0            0 
  371600    300.15603   -1243.6895    222.18585   -1021.5036    846.79377     14.82266     14.82266     14.82266            0            0            0 
  371700    299.35173   -1223.1525    221.59048    -1001.562    -463.7191     14.88706     14.88706     14.88706            0            0            0 
  371800     307.1555    -1214.369     227.3671   -987.00194   -670.90573    14.851759    14.851759    14.851759            0            0            0 
  371900    299.15384    -1223.555    221.44399    -1002.111    815.89939    14.862921    14.862921    14.862921            0            0            0 
  372000    293.62821   -1206.9774    217.35373   -989.62362    654.08374    14.929093    14.929093    14.929093            0            0            0 
  372100    303.52321   -1201.1955    224.67835   -976.51713     375.2671    14.764066    14.764066    14.764066            0            0            0 
  372200    280.61932   -1206.5833     207.7241    -998.8592    896.30711    14.859108    14.859108    14.859108            0            0            0 
  372300     305.9245   -1218.9965    226.45587   -992.54065    566.99827    14.973183    14.973183    14.973183            0            0            0 
  372400     293.1355    -1222.761    216.98901    -1005.772   -2223.7798    15.089361    15.089361    15.089361            0            0            0 
  372500    324.67977    -1223.011    240.33916   -982.67179   -169.65053     14.81881     14.81881     14.81881            0            0            0 
  372600     308.5139   -1209.7166    228.37263   -981.34394   -953.53072    14.914161    14.914161    14.914161            0            0            0 
  372700    308.52145   -1249.3356    228.37822   -1020.9574    1675.9673     14.86465     14.86465     14.86465            0            0            0 
  372800    289.67197   -1242.1001    214.42519    -1027.675    1520.3299    14.843584    14.843584    14.843584            0            0            0 
  372900    304.00681   -1232.1582    225.03633   -1007.1219   -1608.5636    15.069779    15.069779    15.069779            0            0            0 
  373000    303.11553   -1223.4618    224.37657   -999.08525     2152.888     14.83008     14.83008     14.83008            0            0            0 
  373100    291.27065   -1215.8748    215.60858   -1000.2662    146.37875    14.838563    14.838563    14.838563            0            0            0 
  373200     269.4777   -1195.2646    199.47669   -995.78793    -429.8617    14.844637    14.844637    14.844637            0            0            0 
  373300    297.53795   -1200.0704    220.24786   -979.82254   -397.37482    14.914799    14.914799    14.914799            0            0            0 
  373400    314.68339   -1223.6362     232.9395   -990.69667   -947.13639    15.002069    15.002069    15.002069            0            0            0 
  373500    297.99301    -1231.275     220.5847   -1010.6903    -939.6699    14.996161    14.996161    14.996161            0            0            0 
  373600    297.33896   -1196.4385    220.10055    -976.3379    1752.2368     14.91736     14.91736     14.91736            0            0            0 
  373700    266.50551   -1190.0184    197.27657   -992.74186    -1850.021     15.01214     15.01214     15.01214            0            0            0 
  373800    317.07573   -1199.5222    234.71039   -964.81184    150.95331    14.929796    14.929796    14.929796            0            0            0 
  373900    291.25633   -1188.8389    215.59798   -973.24093   -421.62888    15.070714    15.070714    15.070714            0            0            0 
  374000    320.45539   -1191.9224    237.21213   -954.71032     631.2465    15.053378    15.053378    15.053378            0            0            0 
  374100    285.67666   -1188.7133    211.46772    -977.2456    -642.8431    15.340415    15.340415    15.340415            0            0            0 
  374200    292.24312   -1193.9185    216.32844   -977.59003    2162.9903    15.187188    15.187188    15.187188            0            0            0 
  374300    294.76665   -1220.7665    218.19644     -1002.57    1964.0698    14.895696    14.895696    14.895696            0            0            0 
  374400    286.87508   -1225.1836    212.35483   -1012.8287   -356.63032     14.90682     14.90682     14.90682            0            0            0 
  374500    277.25576   -1246.6248    205.23428   -1041.3905    505.89924    14.881518    14.881518    14.881518            0            0            0 
  374600    287.44207   -1229.9954    212.77453   -1017.2208   -471.13127    14.988711    14.988711    14.988711            0            0            0 
  374700    250.37921   -1230.1229    185.33933   -1044.7836     463.7398     14.84651     14.84651     14.84651            0            0            0 
  374800    328.70929   -1237.2641    243.32195   -993.94212   -1638.3525    14.967954    14.967954    14.967954            0            0            0 
  374900    297.85097   -1201.8763    220.47956    -981.3967   -157.19744    15.120651    15.120651    15.120651            0            0            0 
  375000    299.15491   -1194.1574    221.44479   -972.71259    94.514754    15.128342    15.128342    15.128342            0            0            0 
  375100    300.40767   -1218.0198    222.37212   -995.64766     1274.478    14.988098    14.988098    14.988098            0            0            0 
  375200    290.52341   -1225.3103    215.05545   -1010.2549   -116.94179    15.091275    15.091275    15.091275            0            0            0 
  375300    301.58795    -1229.056    223.24581   -1005.8102    1132.5711     15.05242     15.05242     15.05242            0            0            0 
  375400    275.73389   -1197.9143    204.10774   -993.80659    521.18313     15.13566     15.13566     15.13566            0            0            0 
  375500    329.31171   -1219.8558    243.76788   -976.08787   -686.97334    15.250576    15.250576    15.250576            0            0            0 
  375600    282.14818   -1182.3839    208.85581   -973.52805     854.7623    15.121138    15.121138    15.121138            0            0            0 
  375700    299.93682   -1220.2834    222.02358   -998.25978    921.65479    14.879242    14.879242    14.879242            0            0            0 
  375800    288.53565    -1194.604    213.58404   -981.01999    379.27193    14.799057    14.799057    14.799057            0            0            0 
  375900    298.81069   -1198.9803    221.18998   -977.79034   -205.06364    14.902132    14.902132    14.902132            0            0            0 
  376000    312.88078   -1209.8205    231.60515   -978.21535   -97.041255    15.032349    15.032349    15.032349            0            0            0 
  376100      293.187   -1225.6567    217.02713   -1008.6295    316.32227    14.949926    14.949926    14.949926            0            0            0 
  376200    280.22045   -1206.6248    207.42884   -999.19593   -1517.0888    14.850975    14.850975    14.850975            0            0            0 
  376300    310.51932    -1236.502    229.85711   -1006.6449    1019.1026    14.771653    14.771653    14.771653            0            0            0 
  376400    295.68839   -1211.9656    218.87875   -993.08682    -1092.856    14.843092    14.843092    14.843092            0            0            0 
  376500    307.66668   -1218.7644    227.74549   -991.01896    982.60594    14.662538    14.662538    14.662538            0            0            0 
  376600     290.4512   -1224.7944      215.002   -1009.7924    -92.73023    14.836701    14.836701    14.836701            0            0            0 
  376700    297.94415   -1236.3645    220.54854    -1015.816   -542.28844    14.928075    14.928075    14.928075            0            0            0 
  376800    303.67781   -1204.6241    224.79279   -979.83128    1422.3068    14.877204    14.877204    14.877204            0            0            0 
  376900    269.94105   -1205.9557    199.81967    -1006.136    93.485641    15.013075    15.013075    15.013075            0            0            0 
  377000    301.27026   -1201.7978    223.01064   -978.78718    -3553.857    15.150749    15.150749    15.150749            0            0            0 
  377100    295.17735   -1192.2846    218.50046   -973.78414    1376.5861    14.962985    14.962985    14.962985            0            0            0 
  377200    308.16457   -1210.6665    228.11404   -982.55249    1137.6978     15.02452     15.02452     15.02452            0            0            0 
  377300    297.71286   -1176.7005    220.37733   -956.32316   -197.06854    15.114476    15.114476    15.114476            0            0            0 
  377400    276.54972   -1191.2117    204.71164   -986.50008    473.17097    15.204187    15.204187    15.204187            0            0            0 
  377500     316.2968   -1183.0351     234.1338   -948.90131    996.58316    15.285731    15.285731    15.285731            0            0            0 
  377600    316.60332   -1188.8849     234.3607   -954.52418    1705.0448    15.146989    15.146989    15.146989            0            0            0 
  377700    308.30847   -1182.1172    228.22057   -953.89663   -1978.3196    15.310333    15.310333    15.310333            0            0            0 
  377800    324.32674   -1188.9477    240.07784   -948.86985   -20.388694    15.237178    15.237178    15.237178            0            0            0 
  377900     298.7858   -1195.7608    221.17155   -974.58928    -70.53627    15.149563    15.149563    15.149563            0            0            0 
  378000     322.9925   -1193.5769    239.09019    -954.4867   -18.286905     15.04139     15.04139     15.04139            0            0            0 
  378100    309.53293   -1189.4786    229.12695   -960.35167    -440.1754     14.97721     14.97721     14.97721            0            0            0 
  378200    315.76036   -1205.5058    233.73671   -971.76912    2334.7369      14.7852      14.7852      14.7852            0            0            0 
  378300    316.20117   -1208.8237    234.06301   -974.76064    78.617297    14.860037    14.860037    14.860037            0            0            0 
  378400    303.54989   -1188.4046     224.6981   -963.70655    161.92231    14.926437    14.926437    14.926437            0            0            0 
  378500      303.185    -1170.057    224.42799   -945.62901   -1122.7632    15.086728    15.086728    15.086728            0            0            0 
  378600     348.4689   -1186.0649     257.9487   -928.11617   -878.10745    15.117333    15.117333    15.117333            0            0            0 
  378700    298.54356   -1187.1085    220.99224   -966.11629    353.93326    15.063667    15.063667    15.063667            0            0            0 
  378800    288.50509   -1190.5441    213.56142   -976.98268   -6.1991247    14.959948    14.959948    14.959948            0            0            0 
  378900      307.881   -1194.5804    227.90414    -966.6763   -749.32388    15.029108    15.029108    15.029108            0            0            0 
  379000    321.49812   -1184.7965      237.984   -946.81252     1783.724    14.890361    14.890361    14.890361            0            0            0 
  379100    312.08053   -1195.4547    231.01277   -964.44189    -315.9174    14.970443    14.970443    14.970443            0            0            0 
  379200    307.28417   -1165.6221    227.46235   -938.15973     1525.864    15.048151    15.048151    15.048151            0            0            0 
  379300    309.72061   -1183.2985    229.26588   -954.03265   -62.843748    14.994525    14.994525    14.994525            0            0            0 
  379400    294.21243   -1180.3169    217.78619   -962.53069    -205.6583    14.951357    14.951357    14.951357            0            0            0 
  379500    308.62913   -1172.3012    228.45793   -943.84323   -202.59404    14.955569    14.955569    14.955569            0            0            0 
  379600    315.55043   -1156.7097    233.58131   -923.12842    392.88198    14.999507    14.999507    14.999507            0            0            0 
  379700    304.54004   -1143.8129    225.43105   -918.38181   -1112.3576    15.099717    15.099717    15.099717            0            0            0 
  379800    338.55764   -1182.4772    250.61205   -931.86519    866.57968    14.896719    14.896719    14.896719            0            0            0 
  379900    299.76716   -1168.3277    221.89799   -946.42969   -905.79393    15.119889    15.119889    15.119889            0            0            0 
  380000     310.9885   -1179.0396    230.20442   -948.83518    -784.6476    15.179766    15.179766    15.179766            0            0            0 
  380100    317.05657   -1194.8343    234.69621   -960.13806    19.531163    15.128722    15.128722    15.128722            0            0            0 
  380200    300.05938   -1174.0848    222.11431   -951.97046   -1149.0679    15.222459    15.222459    15.222459            0            0            0 
  380300    323.86257    -1188.737    239.73425   -949.00274    281.67039    15.071904    15.071904    15.071904            0            0            0 
  380400    301.11635   -1192.7938    222.89671   -969.89707    -550.4053    15.098903    15.098903    15.098903            0            0            0 
  380500    294.71714   -1173.6341     218.1598   -955.47426   -320.40539    15.147128    15.147128    15.147128            0            0            0 
  380600     314.7153   -1180.0778    232.96312   -947.11468    1399.7018    14.949652    14.949652    14.949652            0            0            0 
  380700    330.38945   -1181.2413    244.56567   -936.67566   -1983.1126    15.177277    15.177277    15.177277            0            0            0 
  380800    309.00858   -1191.2426    228.73881   -962.50383   -122.68575    15.101353    15.101353    15.101353            0            0            0 
  380900    299.82272   -1198.0469    221.93912   -976.10777   -3197.4426    15.229673    15.229673    15.229673            0            0            0 
  381000    295.11291   -1232.6085    218.45275   -1014.1558   -393.28081    15.062445    15.062445    15.062445            0            0            0 
  381100    264.10667    -1208.119    195.50087   -1012.6181   -226.23588    15.054229    15.054229    15.054229            0            0            0 
  381200    271.68094   -1224.5563     201.1076   -1023.4486     -633.578    15.003449    15.003449    15.003449            0            0            0 
  381300    295.52661   -1241.9207    218.75899   -1023.1617    1777.1127    14.752573    14.752573    14.752573            0            0            0 
  381400    282.26176   -1180.8025    208.93989   -971.86263    1588.6625     14.86752     14.86752     14.86752            0            0            0 
  381500    317.42705   -1209.4831    234.97046   -974.51266   -547.01999    14.932859    14.932859    14.932859            0            0            0 
  381600    303.66823    -1192.004     224.7857   -967.21828   -1168.5268    15.088431    15.088431    15.088431            0            0            0 
  381700    317.58424   -1190.9035    235.08681    -955.8167    535.78523    15.033656    15.033656    15.033656            0            0            0 
  381800     314.8675   -1198.5339    233.07579   -965.45811   -1526.8213     15.07231     15.07231     15.07231            0            0            0 
  381900    319.75199   -1176.2511    236.69145   -939.55965   -366.25599     14.97737     14.97737     14.97737            0            0            0 
  382000    313.22196   -1203.9075     231.8577   -972.04981   -419.62892    15.029258    15.029258    15.029258            0            0            0 
  382100    260.03689   -1190.1269    192.48827   -997.63865   -1063.7526     14.98089     14.98089     14.98089            0            0            0 
  382200    265.60882   -1203.6341    196.61281   -1007.0213    387.99746    14.929273    14.929273    14.929273            0            0            0 
  382300    325.79033   -1204.3812    241.16124   -963.21995    625.06333    14.973727    14.973727    14.973727            0            0            0 
  382400    291.16415   -1189.8025    215.52974   -974.27274    197.68367    14.964649    14.964649    14.964649            0            0            0 
  382500    316.13699   -1205.5262     234.0155   -971.51065    286.68129    14.777268    14.777268    14.777268            0            0            0 
  382600    300.79709   -1181.5962    222.66038   -958.93581     -2598.77    14.848635    14.848635    14.848635            0            0            0 
  382700    308.96407   -1180.0028    228.70586   -951.29691    456.13612    14.823464    14.823464    14.823464            0            0            0 
  382800    293.72004   -1177.5279     217.4217   -960.10623    1629.6491     14.80523     14.80523     14.80523            0            0            0 
  382900    307.74131   -1216.3487    227.80073   -988.54795   -838.63575    15.043762    15.043762    15.043762            0            0            0 
  383000     288.4596   -1185.7216    213.52775   -972.19385    1402.1645    15.053146    15.053146    15.053146            0            0            0 
  383100    270.60865   -1197.3398    200.31386   -997.02596   -1091.3558    15.100385    15.100385    15.100385            0            0            0 
  383200    291.94994   -1231.3125    216.11141   -1015.2011     -32.2602    14.999684    14.999684    14.999684            0            0            0 
  383300    282.22295   -1203.9855    208.91117   -995.07437    3333.8769    14.962777    14.962777    14.962777            0            0            0 
  383400    310.68379   -1229.9965    229.97886   -1000.0177    19.340625    14.911434    14.911434    14.911434            0            0            0 
  383500    310.08593   -1227.4193     229.5363   -997.88302   -12.130902    14.979381    14.979381    14.979381            0            0            0 
  383600    297.61963   -1207.6179    220.30832   -987.30955    -858.4629    15.278485    15.278485    15.278485            0            0            0 
  383700    311.35543   -1226.6361    230.47603   -996.16003    2035.8086    14.976895    14.976895    14.976895            0            0            0 
  383800    303.42213   -1213.8142    224.60353   -989.21066   -1138.3279    15.101714    15.101714    15.101714            0            0            0 
  383900      310.011   -1223.4133    229.48084   -993.93247    1105.3096    14.941861    14.941861    14.941861            0            0            0 
  384000    296.37699   -1220.1555    219.38847    -1000.767    265.53757    14.909782    14.909782    14.909782            0            0            0 
  384100    298.43713   -1204.1299    220.91346   -983.21648   -1123.4532    14.953976    14.953976    14.953976            0            0            0 
  384200     321.7305    -1217.236    238.15601   -979.07999   -125.60957    14.970081    14.970081    14.970081            0            0            0 
  384300    310.42093   -1193.1375    229.78428   -963.35323   -537.56407    15.234462    15.234462    15.234462            0            0            0 
  384400    294.89694   -1186.5064    218.29289   -968.21347   -1115.9012    15.298755    15.298755    15.298755            0            0            0 
  384500    287.59056    -1200.042    212.88445   -987.15756   -1504.0122     15.34022     15.34022     15.34022            0            0            0 
  384600    311.62707   -1209.1163    230.67711   -978.43918    147.42854    15.287024    15.287024    15.287024            0            0            0 
  384700    302.49378   -1189.5033    223.91633     -965.587   -1385.7284    15.162567    15.162567    15.162567            0            0            0 
  384800     315.2645   -1203.9446    233.36966   -970.57496    2675.9752    14.864628    14.864628    14.864628            0            0            0 
  384900    272.80465   -1185.5078    201.93941    -983.5684   -989.20633    14.967574    14.967574    14.967574            0            0            0 
  385000    297.02093   -1176.9127    219.86514    -957.0476    427.14854    14.872119    14.872119    14.872119            0            0            0 
  385100    282.16878   -1179.4533    208.87107   -970.58224    181.38022    14.939732    14.939732    14.939732            0            0            0 
  385200    307.06694   -1180.4861    227.30154   -953.18457   -282.59888    15.053456    15.053456    15.053456            0            0            0 
  385300    303.17543   -1197.7365    224.42091   -973.31555   -1303.7964    15.116904    15.116904    15.116904            0            0            0 
  385400    310.43362   -1218.9685    229.79368   -989.17481    744.50551    14.855904    14.855904    14.855904            0            0            0 
  385500    328.89253   -1207.6615    243.45759   -964.20388    967.80521      14.8494      14.8494      14.8494            0            0            0 
  385600    317.05338   -1196.2177    234.69385   -961.52388   -424.44494    15.050691    15.050691    15.050691            0            0            0 
  385700    294.86246   -1184.7725    218.26736   -966.50514   -795.91532    15.105391    15.105391    15.105391            0            0            0 
  385800    301.90795   -1183.2272    223.48268   -959.74454   -992.30667    14.987174    14.987174    14.987174            0            0            0 
  385900    325.71414   -1177.9094    241.10484   -936.80458   -581.66459    15.013432    15.013432    15.013432            0            0            0 
  386000    296.62076   -1173.0764    219.56892    -953.5075    4.9562464     14.94411     14.94411     14.94411            0            0            0 
  386100    288.59478   -1213.0048    213.62781   -999.37702    -903.7327    14.994259    14.994259    14.994259            0            0            0 
  386200    272.02226    -1200.228    201.36026   -998.86775   -48.698299    14.991112    14.991112    14.991112            0            0            0 
  386300    292.07742   -1214.1914    216.20578   -997.98562   -1524.0228    14.866354    14.866354    14.866354            0            0            0 
  386400     314.9405   -1214.2607    233.12982   -981.13083   -109.12887    14.790558    14.790558    14.790558            0            0            0 
  386500    296.43974   -1207.0069    219.43492   -987.57197     -917.059    14.980884    14.980884    14.980884            0            0            0 
  386600    313.61691   -1194.1277    232.15006   -961.97762   -1114.7759    14.890228    14.890228    14.890228            0            0            0 
  386700    302.70789   -1196.2848    224.07482   -972.20993    643.32302    14.699227    14.699227    14.699227            0            0            0 
  386800     284.1888   -1169.2218    210.36635   -958.85548    819.21514    14.756058    14.756058    14.756058            0            0            0 
  386900    296.94017   -1190.9296    219.80536   -971.12423   -1001.6776    15.018384    15.018384    15.018384            0            0            0 
  387000    297.40178   -1209.5466    220.14706   -989.39952    -1351.534    15.063597    15.063597    15.063597            0            0            0 
  387100    304.39329   -1201.3063    225.32241   -975.98386    2026.0795     14.89681     14.89681     14.89681            0            0            0 
  387200    299.37767   -1178.9769    221.60968   -957.36726    801.90882    15.014209    15.014209    15.014209            0            0            0 
  387300    305.05791   -1209.7603    225.81439   -983.94593   -305.11788    14.850372    14.850372    14.850372            0            0            0 
  387400    269.27983   -1218.5134    199.33022   -1019.1832    345.71502    14.821322    14.821322    14.821322            0            0            0 
  387500    308.72879   -1234.5547     228.5317    -1006.023    1073.5731    14.901078    14.901078    14.901078            0            0            0 
  387600    299.88671   -1200.9754    221.98649   -978.98889   -1602.3872    15.076423    15.076423    15.076423            0            0            0 
  387700    315.16193   -1199.2661    233.29373   -965.97241    614.76883    14.946075    14.946075    14.946075            0            0            0 
  387800     323.6075   -1184.5288    239.54543   -944.98341    802.76013    15.027874    15.027874    15.027874            0            0            0 
  387900    329.83527   -1187.4774    244.15545   -943.32199   -536.33838    15.019177    15.019177    15.019177            0            0            0 
  388000    316.84472   -1218.1088    234.53939   -983.56938    124.55703    14.963862    14.963862    14.963862            0            0            0 
  388100    309.98605   -1200.5069    229.46237   -971.04458   -93.888391    14.988217    14.988217    14.988217            0            0            0 
  388200    322.84615   -1226.8619    238.98186   -987.88009     1170.901    14.822067    14.822067    14.822067            0            0            0 
  388300    287.97532    -1211.695    213.16927   -998.52575   -15.678653    14.925824    14.925824    14.925824            0            0            0 
  388400    313.29837   -1194.1847    231.91426   -962.27044   -988.90246    15.099012    15.099012    15.099012            0            0            0 
  388500    316.37317   -1208.4478    234.19033   -974.25749    1427.8058    15.076351    15.076351    15.076351            0            0            0 
  388600    316.26842   -1202.4807     234.1128    -968.3679   -1728.7527    15.228243    15.228243    15.228243            0            0            0 
  388700    313.07865   -1214.9008    231.75162   -983.14923    744.31875    14.912831    14.912831    14.912831            0            0            0 
  388800    289.90205   -1215.9484     214.5955   -1001.3529   -633.08444    14.951572    14.951572    14.951572            0            0            0 
  388900    294.74841   -1186.6391    218.18294   -968.45618   -1779.6724    15.199109    15.199109    15.199109            0            0            0 
  389000     307.1888   -1207.2781    227.39175   -979.88631    1763.6928    15.008409    15.008409    15.008409            0            0            0 
  389100    296.24197   -1216.3163    219.28853    -997.0278   -312.04512    15.013584    15.013584    15.013584            0            0            0 
  389200    304.16114   -1195.6294    225.15057   -970.47886    -271.7279    15.036852    15.036852    15.036852            0            0            0 
  389300     311.0866   -1200.3197    230.27703   -970.04263    2356.5755    14.865612    14.865612    14.865612            0            0            0 
  389400    314.66829   -1196.4145    232.92832   -963.48619    -585.4283    15.077043    15.077043    15.077043            0            0            0 
  389500    312.29285   -1173.1903    231.16994   -942.02033    611.16028    15.038998    15.038998    15.038998            0            0            0 
  389600    311.25674   -1194.8989    230.40298   -964.49593   -204.23411    14.901401    14.901401    14.901401            0            0            0 
  389700    259.88084   -1195.6693    192.37276   -1003.2966   -1182.2005    14.949447    14.949447    14.949447            0            0            0 
  389800    289.26337   -1196.5432    214.12273   -982.42046    989.77255    14.797879    14.797879    14.797879            0            0            0 
  389900    304.62797   -1206.8141    225.49613   -981.31796   -882.69151    14.903853    14.903853    14.903853            0            0            0 
  390000    323.50752   -1214.3368    239.47143   -974.86534   -232.36579    14.821467    14.821467    14.821467            0            0            0 
  390100     317.5333   -1223.4987     235.0491   -988.44964   -1416.7736    14.970512    14.970512    14.970512            0            0            0 
  390200    288.93327   -1211.8121    213.87837   -997.93368   -1296.3966    14.979514    14.979514    14.979514            0            0            0 
  390300     302.4752   -1209.2575    223.90258   -985.35488   -1501.9451    15.048789    15.048789    15.048789            0            0            0 
  390400    290.34377   -1234.2684    214.92247   -1019.3459    540.62209    15.167475    15.167475    15.167475            0            0            0 
  390500     307.6471   -1207.0522      227.731   -979.32124    1519.3355    15.139842    15.139842    15.139842            0            0            0 
  390600    269.28256   -1190.1007    199.33224   -990.76841   -276.94549    15.152239    15.152239    15.152239            0            0            0 
  390700    292.86923   -1197.3406     216.7919   -980.54865    372.94316    15.008214    15.008214    15.008214            0            0            0 
  390800    258.60901   -1190.6532    191.43131   -999.22185    919.78403    15.030749    15.030749    15.030749            0            0            0 
  390900    279.14373   -1201.8845    206.63182   -995.25271   -594.94888    15.076502    15.076502    15.076502            0            0            0 
  391000    332.52896   -1205.8623    246.14941   -959.71291   -7.9468158    14.766011    14.766011    14.766011            0            0            0 
  391100    321.10499    -1199.622    237.69299   -961.92898    2211.9938    14.762255    14.762255    14.762255            0            0            0 
  391200     278.5356   -1171.4614    206.18166    -965.2797   -1510.0833    15.162597    15.162597    15.162597            0            0            0 
  391300    314.60548   -1208.3495    232.88183   -975.46766    225.42357    15.000475    15.000475    15.000475            0            0            0 
  391400    298.95187   -1200.5214    221.29448   -979.22692   -980.37993    14.999128    14.999128    14.999128            0            0            0 
  391500    293.42184   -1205.5851    217.20097   -988.38413   -41.577661     14.89489     14.89489     14.89489            0            0            0 
  391600    296.75572   -1210.7768    219.66882   -991.10802   -1622.6526    14.895231    14.895231    14.895231            0            0            0 
  391700    304.52078   -1226.0192    225.41679   -1000.6024    817.29072    14.862791    14.862791    14.862791            0            0            0 
  391800    299.02484   -1221.7551     221.3485   -1000.4066    -1180.853    14.947036    14.947036    14.947036            0            0            0 
  391900    251.69702   -1203.5731    186.31482   -1017.2583    92.158012    14.962695    14.962695    14.962695            0            0            0 
  392000    291.45988   -1239.5203    215.74866   -1023.7717    165.79443    14.759137    14.759137    14.759137            0            0            0 
  392100    270.38999   -1221.5909    200.15199   -1021.4389    571.45974    14.786613    14.786613    14.786613            0            0            0 
  392200    284.37432   -1225.1035    210.50368   -1014.5998   -440.55507    14.834438    14.834438    14.834438            0            0            0 
  392300    323.05343   -1205.0975     239.1353   -965.96224   -1756.5087     14.85375     14.85375     14.85375            0            0            0 
  392400    286.74844   -1200.2917    212.26109   -988.03062    827.39491    14.894935    14.894935    14.894935            0            0            0 
  392500    285.28097   -1206.7338    211.17481   -995.55899   -1695.5479    15.142616    15.142616    15.142616            0            0            0 
  392600    314.90958   -1218.7332    233.10693   -985.62632    134.41227     14.97307     14.97307     14.97307            0            0            0 
  392700    290.39253   -1189.9034    214.95857   -974.94481   -493.53913    15.059539    15.059539    15.059539            0            0            0 
  392800    315.39928   -1192.9161    233.46943    -959.4467    -108.6311    14.949804    14.949804    14.949804            0            0            0 
  392900    315.93601   -1199.3447    233.86674   -965.47795    1689.4054      14.8402      14.8402      14.8402            0            0            0 
  393000    292.72052   -1217.2693    216.68182   -1000.5875      -461.18    14.905773    14.905773    14.905773            0            0            0 
  393100    337.32198   -1223.2948    249.69736    -973.5974   -191.28415    14.970764    14.970764    14.970764            0            0            0 
  393200    301.53583   -1171.0935    223.20722   -947.88629   -1437.1965     15.16783     15.16783     15.16783            0            0            0 
  393300    308.43737   -1188.1233    228.31598   -959.80734    1178.5399    14.981262    14.981262    14.981262            0            0            0 
  393400    301.10161    -1192.648     222.8858   -969.76222   -386.82954    15.141841    15.141841    15.141841            0            0            0 
  393500    326.41726   -1206.6856    241.62532    -965.0603   -1610.7021    15.262272    15.262272    15.262272            0            0            0 
  393600    321.94907   -1187.9338    238.31781   -949.61595   -503.86651    15.113673    15.113673    15.113673            0            0            0 
  393700    308.83949   -1202.1048    228.61364   -973.49113    305.71744    15.245389    15.245389    15.245389            0            0            0 
  393800    323.61623   -1206.3037     239.5519   -966.75185   -944.60897    15.490975    15.490975    15.490975            0            0            0 
  393900    303.21209   -1188.7035    224.44805   -964.25541    25.585658    15.371137    15.371137    15.371137            0            0            0 
  394000    293.78166   -1213.2578    217.46732   -995.79046   -21.864308    15.268156    15.268156    15.268156            0            0            0 
  394100    308.14823   -1235.2987    228.10195   -1007.1967    2124.2369    14.896961    14.896961    14.896961            0            0            0 
  394200    289.56933   -1221.7071     214.3492   -1007.3579    1409.2493    14.928845    14.928845    14.928845            0            0            0 
  394300     318.8238   -1222.1364    236.00438   -986.13204    1132.4436    14.838685    14.838685    14.838685            0            0            0 
  394400     299.8588   -1228.5274    221.96583   -1006.5616   -434.57333    14.875649    14.875649    14.875649            0            0            0 
  394500    293.71717   -1239.6893    217.41958   -1022.2697    -378.9719    14.853719    14.853719    14.853719            0            0            0 
  394600    307.50015    -1244.484    227.62222   -1016.8618    1275.5302    14.896694    14.896694    14.896694            0            0            0 
  394700    289.16939   -1224.2142    214.05316    -1010.161    549.13471    14.990368    14.990368    14.990368            0            0            0 
  394800     298.0169   -1195.7563    220.60239    -975.1539   -371.30922    15.161498    15.161498    15.161498            0            0            0 
  394900    286.49561   -1213.1638    212.07394   -1001.0899   -479.81122    14.989169    14.989169    14.989169            0            0            0 
  395000    306.11733   -1191.6434    226.59861   -965.04475   -694.15618    14.995392    14.995392    14.995392            0            0            0 
  395100    292.68677   -1194.0994    216.65684   -977.44257   -773.03579    15.109126    15.109126    15.109126            0            0            0 
  395200    316.71469    -1211.289    234.44314   -976.84585    3457.2705    14.721561    14.721561    14.721561            0            0            0 
  395300    302.81396   -1224.4067    224.15334   -1000.2534   -3325.6131    14.997383    14.997383    14.997383            0            0            0 
  395400    311.12537   -1229.2692    230.30573   -998.96351     368.6039    14.826298    14.826298    14.826298            0            0            0 
  395500    277.30578   -1211.8333     205.2713    -1006.562   -1161.6822    14.944025    14.944025    14.944025            0            0            0 
  395600    288.57768   -1194.5807    213.61516   -980.96552   -2558.7901    15.107798    15.107798    15.107798            0            0            0 
  395700    325.83406   -1226.7362    241.19361   -985.54257    1743.4128    14.833532    14.833532    14.833532            0            0            0 
  395800    270.66562   -1192.8969    200.35603   -992.54087   -2401.2024    15.090914    15.090914    15.090914            0            0            0 
  395900     305.0668   -1236.0589    225.82097   -1010.2379    1932.4661    14.742122    14.742122    14.742122            0            0            0 
  396000    287.07953   -1212.3948    212.50617   -999.88863   -512.41518    14.931286    14.931286    14.931286            0            0            0 
  396100    299.73666   -1222.2621    221.87541   -1000.3867     878.4351    14.940646    14.940646    14.940646            0            0            0 
  396200    272.58074    -1206.557    201.77367   -1004.7834   -150.09148    15.113422    15.113422    15.113422            0            0            0 
  396300     296.8293   -1205.5062    219.72328   -985.78287   -393.85419    14.949847    14.949847    14.949847            0            0            0 
  396400    313.82125   -1209.7876    232.30131   -977.48624    1338.1641    14.962823    14.962823    14.962823            0            0            0 
  396500    306.77167     -1199.68    227.08297   -972.59706   -1414.6966    15.228682    15.228682    15.228682            0            0            0 
  396600    289.52971   -1170.4175    214.31988   -956.09766   -834.36748    15.205108    15.205108    15.205108            0            0            0 
  396700    303.52194   -1207.5369    224.67741   -982.85953     435.6015     15.04681     15.04681     15.04681            0            0            0 
  396800    303.30004   -1192.6166    224.51315   -968.10349   -535.42274    15.210146    15.210146    15.210146            0            0            0 
  396900    301.51966   -1187.2974    223.19525   -964.10217   -129.04087    15.165918    15.165918    15.165918            0            0            0 
  397000    302.64608   -1211.1343    224.02907   -987.10526   -432.33138    15.237055    15.237055    15.237055            0            0            0 
  397100    310.27233   -1210.5926    229.67428   -980.91833   -376.93095    15.110714    15.110714    15.110714            0            0            0 
  397200    313.79538   -1223.1625    232.28217   -990.88038    1810.5111    14.900482    14.900482    14.900482            0            0            0 
  397300     274.3034    -1217.242    203.04884   -1014.1932    1178.5704    14.926976    14.926976    14.926976            0            0            0 
  397400    282.33843   -1208.7446    208.99664   -999.74795   -1826.6404    15.204506    15.204506    15.204506            0            0            0 
  397500    279.47916   -1190.6268    206.88011   -983.74665    176.17056    15.160707    15.160707    15.160707            0            0            0 
  397600    317.69926   -1209.0561    235.17195   -973.88417   -867.77541    15.144202    15.144202    15.144202            0            0            0 
  397700    310.04753   -1197.1126    229.50788   -967.60468   -118.76403    15.065275    15.065275    15.065275            0            0            0 
  397800    307.74001   -1184.5098    227.79977   -956.71003    855.65323    14.982448    14.982448    14.982448            0            0            0 
  397900    279.52663   -1195.7196    206.91526   -988.80432    460.22453    14.931967    14.931967    14.931967            0            0            0 
  398000    301.53709   -1191.1159    223.20816   -967.90778    122.15129    15.032862    15.032862    15.032862            0            0            0 
  398100     313.8193   -1210.0969    232.29987     -977.797    151.52337    14.923888    14.923888    14.923888            0            0            0 
  398200    313.64001   -1196.5892    232.16716   -964.42205    2561.2109    14.796527    14.796527    14.796527            0            0            0 
  398300    295.76073   -1194.9149    218.93229   -975.98258   -71.021202    15.024347    15.024347    15.024347            0            0            0 
  398400    302.03733     -1221.56    223.57845   -997.98154    -1028.316     15.05332     15.05332     15.05332            0            0            0 
  398500    274.61607   -1195.0916    203.28028   -991.81131   -1671.0399    15.078021    15.078021    15.078021            0            0            0 
  398600    289.92458   -1225.9974    214.61218   -1011.3853    411.92267    14.901627    14.901627    14.901627            0            0            0 
  398700    288.93392   -1199.7043    213.87886   -985.82548    310.37242    14.873788    14.873788    14.873788            0            0            0 
  398800    327.31976    -1205.837    242.29338   -963.54363    2257.5114    14.777343    14.777343    14.777343            0            0            0 
  398900    281.27819   -1163.3215    208.21182   -955.10972   -1048.6535     15.06208     15.06208     15.06208            0            0            0 
  399000    314.83986   -1207.3681    233.05533   -974.31276    2291.0853    14.900855    14.900855    14.900855            0            0            0 
  399100    286.72859   -1171.6026    212.24639    -959.3562    762.44003    15.095479    15.095479    15.095479            0            0            0 
  399200      317.903   -1218.8585    235.32277   -983.53578   -372.75529    15.162079    15.162079    15.162079            0            0            0 
  399300    317.82201   -1193.1489    235.26281   -957.88607    1957.4401    15.203583    15.203583    15.203583            0            0            0 
  399400     336.1829   -1195.3933    248.85418   -946.53917    712.51542    15.223709    15.223709    15.223709            0            0            0 
  399500     310.8898   -1184.3977    230.13135    -954.2664    -536.9982    15.363295    15.363295    15.363295            0            0            0 
  399600    278.45117   -1190.9823    206.11916   -984.86315    1231.6607    15.286889    15.286889    15.286889            0            0            0 
  399700    319.30272   -1205.0955    236.35889   -968.73665    834.81756    15.040521    15.040521    15.040521            0            0            0 
  399800     296.3887   -1203.5964    219.39714   -984.19926    110.22952    14.918887    14.918887    14.918887            0            0            0 
  399900    297.71767   -1214.6578    220.38089   -994.27688    -782.5877    14.924623    14.924623    14.924623            0            0            0 
SHAKE stats (type/ave/delta) on step 400000
  1 0.957179 3.92384e-05 636
  400000    275.37278   -1195.2954    203.84043   -991.45497   -935.17372    14.934978    14.934978    14.934978            0            0            0 
  400100    304.87323   -1215.6964    225.67768   -990.01867     1495.917    14.713044    14.713044    14.713044            0            0            0 
  400200    274.76222    -1205.116    203.38847   -1001.7275    193.39997    14.856677    14.856677    14.856677            0            0            0 
  400300    286.40232   -1208.9609    212.00487     -996.956   -528.37205    15.077073    15.077073    15.077073            0            0            0 
  400400    312.28804   -1209.1989    231.16638    -978.0325     1310.336    15.005185    15.005185    15.005185            0            0            0 
  400500    308.56566   -1217.1959    228.41094   -988.78495    1574.3795    15.084733    15.084733    15.084733            0            0            0 
  400600    275.21806   -1194.3312     203.7259   -990.60533     400.7687    15.096878    15.096878    15.096878            0            0            0 
  400700    283.15127   -1203.0782    209.59834   -993.47985   -422.97339    15.165621    15.165621    15.165621            0            0            0 
  400800    295.13685   -1190.7349    218.47048    -972.2644    624.40531    15.135819    15.135819    15.135819            0            0            0 
  400900    274.71003   -1180.9244    203.34984   -977.57455    671.67385    15.074024    15.074024    15.074024            0            0            0 
  401000    307.57673   -1180.6253    227.67891    -952.9464    817.45881    15.149965    15.149965    15.149965            0            0            0 
  401100    305.81579   -1185.4785     226.3754   -959.10314   -524.80134    15.161855    15.161855    15.161855            0            0            0 
  401200    303.06837   -1193.1099    224.34166   -968.76828    1601.7154    14.829827    14.829827    14.829827            0            0            0 
  401300    296.42592   -1208.8463    219.42469   -989.42158   -1644.0389    15.041799    15.041799    15.041799            0            0            0 
  401400    270.55733   -1188.8181    200.27587   -988.54225    1143.6163    15.109371    15.109371    15.109371            0            0            0 
  401500    297.17509    -1162.339    219.97926   -942.35979   -680.79229    15.117058    15.117058    15.117058            0            0            0 
  401600    331.54784   -1176.4395    245.42315    -931.0163    386.54587    14.913515    14.913515    14.913515            0            0            0 
  401700    307.46774   -1196.1331    227.59823    -968.5349    1967.8539    14.922699    14.922699    14.922699            0            0            0 
  401800    299.08505   -1189.7884    221.39307   -968.39536    491.71595    14.979144    14.979144    14.979144            0            0            0 
  401900    311.86164   -1205.3334    230.85074   -974.48268   -1116.2686    15.086404    15.086404    15.086404            0            0            0 
  402000    265.22025   -1206.1469    196.32518   -1009.8217    266.31932    14.871618    14.871618    14.871618            0            0            0 
  402100    290.76749   -1195.9395    215.23612   -980.70341    -612.4059    14.856052    14.856052    14.856052            0            0            0 
  402200    335.58535   -1215.8377    248.41185   -967.42589    577.09507    14.695801    14.695801    14.695801            0            0            0 
  402300    282.61894   -1177.6608    209.20429   -968.45651   -1392.9536    14.831205    14.831205    14.831205            0            0            0 
  402400    285.80507   -1204.6857    211.56277   -993.12296   -3.6064275     14.79175     14.79175     14.79175            0            0            0 
  402500    281.53213    -1232.081     208.3998   -1023.6812   -2892.6511    14.903749    14.903749    14.903749            0            0            0 
  402600    295.22997   -1235.3698    218.53941   -1016.8304    2109.3646    14.716102    14.716102    14.716102            0            0            0 
  402700    274.32352    -1227.425    203.06373   -1024.3612    -453.4507    14.911574    14.911574    14.911574            0            0            0 
  402800    281.63565   -1239.8876    208.47642   -1031.4112    1105.3804    14.778499    14.778499    14.778499            0            0            0 
  402900    281.13079   -1235.0221    208.10271   -1026.9194   -1525.9085    14.871063    14.871063    14.871063            0            0            0 
  403000    308.39104   -1216.9189    228.28168   -988.63723    272.37582    14.822848    14.822848    14.822848            0            0            0 
  403100    313.97551   -1199.9603    232.41551   -967.54477   -751.23694    14.997588    14.997588    14.997588            0            0            0 
  403200    303.70736   -1212.8903    224.81466    -988.0756    1423.7693    14.916792    14.916792    14.916792            0            0            0 
  403300     311.5504   -1222.0033    230.62035   -991.38297   -956.62207    14.854759    14.854759    14.854759            0            0            0 
  403400    287.21174   -1217.2753    212.60404   -1004.6713    118.40182    14.661629    14.661629    14.661629            0            0            0 
  403500    278.07362   -1214.8859    205.83969   -1009.0462   -1499.5686    14.762227    14.762227    14.762227            0            0            0 
  403600    297.15732   -1217.0107     219.9661    -997.0446    632.44907    14.634377    14.634377    14.634377            0            0            0 
  403700    301.22471   -1228.1985    222.97692   -1005.2216     1765.536    14.609058    14.609058    14.609058            0            0            0 
  403800    309.31881     -1215.08    228.96845    -986.1115    165.26707    14.578689    14.578689    14.578689            0            0            0 
  403900     286.1158   -1209.4538    211.79279   -997.66098   -1929.1888    14.696395    14.696395    14.696395            0            0            0 
  404000    294.36022   -1222.1478    217.89559   -1004.2522    800.92041    14.654974    14.654974    14.654974            0            0            0 
  404100    294.33233   -1223.2737    217.87494   -1005.3988   -1578.8408    14.660906    14.660906    14.660906            0            0            0 
  404200    312.59164   -1223.2818    231.39111   -991.89071     1605.259    14.615879    14.615879    14.615879            0            0            0 
  404300    307.76383   -1212.7021     227.8174   -984.88467   -1188.7404     14.97806     14.97806     14.97806            0            0            0 
  404400    275.04614   -1227.7483    203.59864   -1024.1497    -449.4475    14.835107    14.835107    14.835107            0            0            0 
  404500    266.38482   -1242.1355    197.18724   -1044.9483   -1762.6748    14.855077    14.855077    14.855077            0            0            0 
  404600    294.16862    -1246.494    217.75376   -1028.7403    970.88145    14.760448    14.760448    14.760448            0            0            0 
  404700    274.94263   -1214.9043    203.52202   -1011.3822   -247.13055    14.956294    14.956294    14.956294            0            0            0 
  404800    288.22846   -1216.7453    213.35665   -1003.3886    678.81691    14.880603    14.880603    14.880603            0            0            0 
  404900     294.4466   -1209.2455    217.95953   -991.28601   -147.07643    14.973157    14.973157    14.973157            0            0            0 
  405000    282.86166   -1225.4023    209.38396   -1016.0183  -0.91734985    15.037574    15.037574    15.037574            0            0            0 
  405100    276.46246   -1225.4418    204.64705   -1020.7947    873.16706    14.889959    14.889959    14.889959            0            0            0 
  405200    301.84317   -1218.5085    223.43473   -995.07377   -91.375957    14.830184    14.830184    14.830184            0            0            0 
  405300    292.66103   -1227.6503    216.63779   -1011.0125    882.47603    14.890742    14.890742    14.890742            0            0            0 
  405400    292.35685   -1193.5194    216.41262   -977.10674   -1630.6848    15.087442    15.087442    15.087442            0            0            0 
  405500    301.90858   -1204.2386    223.48314   -980.75542   -1231.4588    15.041265    15.041265    15.041265            0            0            0 
  405600    293.63904   -1230.0104    217.36175   -1012.6486   -1254.4284    15.025047    15.025047    15.025047            0            0            0 
  405700    291.00895   -1233.2464    215.41486   -1017.8315    824.11165    14.987673    14.987673    14.987673            0            0            0 
  405800    284.61805   -1216.5367     210.6841   -1005.8526   -1323.9963    15.184074    15.184074    15.184074            0            0            0 
  405900     313.2565   -1215.1636    231.88326    -983.2803   -307.71804    15.019022    15.019022    15.019022            0            0            0 
  406000    302.61417   -1203.8998    224.00545   -979.89431   -190.87933    14.939508    14.939508    14.939508            0            0            0 
  406100    338.61839   -1197.7672    250.65701   -947.11019   -2208.2692    15.045438    15.045438    15.045438            0            0            0 
  406200    298.45775   -1189.7867    220.92872   -968.85799   -2140.3761    15.076104    15.076104    15.076104            0            0            0 
  406300    314.42751   -1205.7401    232.75009   -972.99005    1792.0986     14.94967     14.94967     14.94967            0            0            0 
  406400    288.24184    -1187.367    213.36655   -974.00041    883.76334     15.05737     15.05737     15.05737            0            0            0 
  406500    315.29378   -1179.4265    233.39133   -946.03517    60.120781    15.208131    15.208131    15.208131            0            0            0 
  406600    316.01652   -1207.5693    233.92633     -973.643   -259.71157    15.277018    15.277018    15.277018            0            0            0 
  406700    315.83968   -1209.9684    233.79542     -976.173   -779.29885    15.221784    15.221784    15.221784            0            0            0 
  406800    287.17303   -1213.1519    212.57538   -1000.5765   -828.24219    15.250528    15.250528    15.250528            0            0            0 
  406900    309.22307   -1200.5838    228.89758   -971.68619    512.96543    15.159479    15.159479    15.159479            0            0            0 
  407000     300.5154   -1195.6427    222.45187   -973.19083    1204.8226    15.270993    15.270993    15.270993            0            0            0 
  407100    329.18459   -1205.2117    243.67379   -961.53795    672.13786    15.192985    15.192985    15.192985            0            0            0 
  407200    324.16964    -1195.897    239.96155   -955.93542   -1590.5247    15.086908    15.086908    15.086908            0            0            0 
  407300    311.72162   -1181.7034     230.7471   -950.95629   -654.76037    15.002171    15.002171    15.002171            0            0            0 
  407400    290.45697   -1207.7183    215.00627   -992.71204    1181.0882    14.900477    14.900477    14.900477            0            0            0 
  407500    280.94695   -1219.6041    207.96663   -1011.6375   -1267.3149    14.965215    14.965215    14.965215            0            0            0 
  407600    300.75577   -1219.1675     222.6298   -996.53775     1203.688    14.845895    14.845895    14.845895            0            0            0 
  407700    297.57234    -1207.891    220.27331   -987.61767   -662.47129    14.958006    14.958006    14.958006            0            0            0 
  407800    301.51357   -1199.3274    223.19075   -976.13662   -935.54612    15.194819    15.194819    15.194819            0            0            0 
  407900    279.95042   -1198.1357    207.22896   -990.90674     1533.748    14.966559    14.966559    14.966559            0            0            0 
  408000    319.25534    -1205.506    236.32381   -969.18218    930.75591    14.689542    14.689542    14.689542            0            0            0 
  408100    307.68659   -1202.5422    227.76023     -974.782    308.11234    14.722347    14.722347    14.722347            0            0            0 
  408200    291.43255   -1201.1116    215.72843   -985.38315    985.14525    14.737763    14.737763    14.737763            0            0            0 
  408300     314.3718    -1202.192    232.70885   -969.48311   -1121.2412    14.869278    14.869278    14.869278            0            0            0 
  408400    302.72284   -1201.7675    224.08589   -977.68164    684.27558    14.812101    14.812101    14.812101            0            0            0 
  408500    286.01701     -1226.95    211.71966   -1015.2304   -1054.3838    14.741639    14.741639    14.741639            0            0            0 
  408600    309.32908   -1214.6969    228.97606   -985.72087   -1148.9611     14.95131     14.95131     14.95131            0            0            0 
  408700    279.26269   -1197.8918    206.71988   -991.17192   -1526.6978    14.981375    14.981375    14.981375            0            0            0 
  408800    276.52708   -1200.8158    204.69489   -996.12088    2882.1358    14.822544    14.822544    14.822544            0            0            0 
  408900    285.48978   -1209.0866    211.32938   -997.75724     -42.8869    14.984921    14.984921    14.984921            0            0            0 
  409000    296.59984   -1203.2043    219.55344   -983.65091    358.34775    15.021412    15.021412    15.021412            0            0            0 
  409100    330.71667   -1209.4438    244.80789   -964.63591    292.14417    15.013482    15.013482    15.013482            0            0            0 
  409200      311.462   -1182.6738    230.55491   -952.11892    1509.1323    15.030861    15.030861    15.030861            0            0            0 
  409300    290.63909   -1193.0849    215.14108   -977.94383   -1052.0251    15.072107    15.072107    15.072107            0            0            0 
  409400    304.98522   -1217.2294    225.76058   -991.46885    89.066158    14.834082    14.834082    14.834082            0            0            0 
  409500    310.25841   -1194.6962    229.66398   -965.03218    1793.4599    14.890136    14.890136    14.890136            0            0            0 
  409600    301.20262   -1192.8192    222.96057   -969.85867     750.0704    15.105617    15.105617    15.105617            0            0            0 
  409700    294.96253   -1198.2308    218.34144   -979.88936   -2195.7355    15.099862    15.099862    15.099862            0            0            0 
  409800    323.19426   -1225.9696    239.23954   -986.73003   -343.02931    14.996751    14.996751    14.996751            0            0            0 
  409900    308.07005   -1195.2473    228.04408   -967.20319    746.19407    14.946354    14.946354    14.946354            0            0            0 
  410000    312.21231    -1197.752    231.11033   -966.64163    182.60359    14.958029    14.958029    14.958029            0            0            0 
  410100    289.72402   -1186.7633    214.46371   -972.29954   -803.05852    15.231627    15.231627    15.231627            0            0            0 
  410200    291.03261   -1193.4844    215.43238   -978.05206    81.698383    15.227092    15.227092    15.227092            0            0            0 
  410300    300.84839    -1207.358    222.69836   -984.65965   -970.73125    15.206051    15.206051    15.206051            0            0            0 
  410400    328.87747   -1215.5082    243.44645   -972.06173   -897.58558    15.066244    15.066244    15.066244            0            0            0 
  410500    308.76264   -1217.1324    228.55676    -988.5756   -2119.4728    15.046459    15.046459    15.046459            0            0            0 
  410600    301.57294   -1211.4781     223.2347   -988.24345   -856.70926    14.790623    14.790623    14.790623            0            0            0 
  410700    293.02272   -1224.9145    216.90552    -1008.009    304.96334    14.731927    14.731927    14.731927            0            0            0 
  410800    280.71327   -1209.7058    207.79365   -1001.9122    812.83637     14.84788     14.84788     14.84788            0            0            0 
  410900    290.35225    -1197.609    214.92875    -982.6802    2642.6103    14.732223    14.732223    14.732223            0            0            0 
  411000    302.04301   -1208.5321    223.58266   -984.94942    415.51376    14.834084    14.834084    14.834084            0            0            0 
  411100    287.37432   -1205.2218    212.72439   -992.49746   -2.7686436    14.887432    14.887432    14.887432            0            0            0 
  411200    307.12099   -1232.8005    227.34155   -1005.4589   -1142.0909    14.926854    14.926854    14.926854            0            0            0 
  411300    300.49019   -1223.8047    222.43321   -1001.3715    822.76215    14.833211    14.833211    14.833211            0            0            0 
  411400    285.78507   -1194.0954    211.54797   -982.54741   -2034.8327    14.837557    14.837557    14.837557            0            0            0 
  411500    285.88202   -1226.9609    211.61973   -1015.3412    1525.9059    14.727182    14.727182    14.727182            0            0            0 
  411600    320.94995    -1240.885    237.57822   -1003.3068   -226.66283     15.01316     15.01316     15.01316            0            0            0 
  411700    276.92123   -1219.9089    204.98665   -1014.9223    161.60428    14.999209    14.999209    14.999209            0            0            0 
  411800    303.04303   -1235.2302     224.3229   -1010.9073    950.97336    14.947192    14.947192    14.947192            0            0            0 
  411900    300.68435   -1216.6341    222.57693   -994.05714    144.11277    14.948503    14.948503    14.948503            0            0            0 
  412000    319.14464   -1222.6421    236.24187   -986.40028   -1507.6275    15.066108    15.066108    15.066108            0            0            0 
  412100     284.8667   -1209.7188    210.86816   -998.85061    2253.4345    14.808491    14.808491    14.808491            0            0            0 
  412200    295.02055   -1226.1331    218.38439   -1007.7487   -979.78627    14.819361    14.819361    14.819361            0            0            0 
  412300    307.51243   -1222.4572    227.63131   -994.82593    -807.8623    14.939751    14.939751    14.939751            0            0            0 
  412400    310.12922   -1214.2653    229.56835   -984.69699   -1649.7252    15.173887    15.173887    15.173887            0            0            0 
  412500    309.10583   -1213.5651     228.8108   -984.75429    1049.4841    15.074102    15.074102    15.074102            0            0            0 
  412600     280.2401   -1215.3299    207.44339   -1007.8865   -296.76235    15.060129    15.060129    15.060129            0            0            0 
  412700    315.64908   -1230.7252    233.65434   -997.07088    1170.9223    14.950174    14.950174    14.950174            0            0            0 
  412800    305.16222   -1202.3566     225.8916   -976.46499    1117.1631    14.849081    14.849081    14.849081            0            0            0 
  412900    302.53001   -1211.2624    223.94315   -987.31925    522.62515    14.871244    14.871244    14.871244            0            0            0 
  413000    281.47372   -1210.4511    208.35656   -1002.0945   -1.8899597    14.907438    14.907438    14.907438            0            0            0 
  413100    290.96867   -1202.7582    215.38505   -987.37315   -11.870796    14.855863    14.855863    14.855863            0            0            0 
  413200    285.85428   -1192.5725     211.5992   -980.97329   -1423.6281    14.943329    14.943329    14.943329            0            0            0 
  413300    335.15143    -1221.356    248.09065   -973.26532     2730.519    14.761914    14.761914    14.761914            0            0            0 
  413400    304.94039   -1207.7244     225.7274   -981.99696   -808.66357    15.027148    15.027148    15.027148            0            0            0 
  413500    296.88559   -1199.3765    219.76495   -979.61156   -3059.2464    15.044536    15.044536    15.044536            0            0            0 
  413600    299.40547   -1209.3639    221.63026   -987.73362     2130.348    14.747387    14.747387    14.747387            0            0            0 
  413700     300.9554   -1208.1484    222.77757   -985.37083   -490.40257    14.842306    14.842306    14.842306            0            0            0 
  413800    309.40518   -1230.1123    229.03239   -1001.0799   -1300.6462    14.832137    14.832137    14.832137            0            0            0 
  413900    285.59002   -1208.2571    211.40358   -996.85352   -1080.8206    14.930451    14.930451    14.930451            0            0            0 
  414000    315.60605   -1212.5695    233.62248   -978.94698    92.674799    14.902882    14.902882    14.902882            0            0            0 
  414100    284.34015   -1206.9603    210.47839   -996.48196    -1272.251    14.978702    14.978702    14.978702            0            0            0 
  414200    299.25883   -1203.7432    221.52171   -982.22149   -1130.7139    15.002379    15.002379    15.002379            0            0            0 
  414300    306.66312   -1225.5595    227.00262   -998.55692     2437.589    14.763697    14.763697    14.763697            0            0            0 
  414400    293.14201   -1211.5626    216.99383    -994.5688   -2120.9666    14.779705    14.779705    14.779705            0            0            0 
  414500    289.64937   -1229.0953    214.40845   -1014.6868   -727.16853    14.844061    14.844061    14.844061            0            0            0 
  414600    310.27867   -1206.3543    229.67897   -976.67531   -968.19371    15.004772    15.004772    15.004772            0            0            0 
  414700    288.79979   -1210.2787    213.77956   -996.49917     1666.284     14.89297     14.89297     14.89297            0            0            0 
  414800    314.62833   -1239.9926    232.89874   -1007.0939   -2415.3149    14.987404    14.987404    14.987404            0            0            0 
  414900    288.86696   -1207.9219    213.82929   -994.09261    2693.9676    14.751928    14.751928    14.751928            0            0            0 
  415000    305.02066   -1215.8565    225.78682   -990.06968   -57.832769    14.895505    14.895505    14.895505            0            0            0 
  415100    306.56866   -1198.7058     226.9327   -971.77315   -417.05475    14.910637    14.910637    14.910637            0            0            0 
  415200    298.31617   -1201.4059    220.82392   -980.58201   -1972.9881    15.013925    15.013925    15.013925            0            0            0 
  415300    303.22804   -1224.6547    224.45986   -1000.1948   -930.51073    15.041107    15.041107    15.041107            0            0            0 
  415400    280.68915   -1187.5289    207.77579   -979.75312   -531.61647     15.03984     15.03984     15.03984            0            0            0 
  415500    298.57489   -1205.3098    221.01543   -984.29435    -480.6385    14.798839    14.798839    14.798839            0            0            0 
  415600    308.15079   -1190.6274    228.10384   -962.52361    1347.8892    14.693795    14.693795    14.693795            0            0            0 
  415700    324.51375   -1202.2049    240.21627   -961.98868    326.23187    14.749602    14.749602    14.749602            0            0            0 
  415800     271.9268   -1213.5385    201.28959   -1012.2489    591.35137    14.757242    14.757242    14.757242            0            0            0 
  415900    285.05362   -1234.2917    211.00653   -1023.2851    1142.9697    14.619969    14.619969    14.619969            0            0            0 
  416000    281.40441   -1232.3455    208.30525   -1024.0402   -816.58451    14.810089    14.810089    14.810089            0            0            0 
  416100    284.91444    -1239.937     210.9035   -1029.0335   -44.486441    14.733745    14.733745    14.733745            0            0            0 
  416200    310.68936   -1234.7389    229.98298    -1004.756   -172.73593    14.750134    14.750134    14.750134            0            0            0 
  416300    332.37889   -1247.2952    246.03832   -1001.2569    606.60098     14.83414     14.83414     14.83414            0            0            0 
  416400    291.57252   -1239.4743    215.83204   -1023.6423    987.94539    14.831507    14.831507    14.831507            0            0            0 
  416500    285.84439   -1219.9282    211.59188   -1008.3363    1021.8023    14.809119    14.809119    14.809119            0            0            0 
  416600    271.51698   -1238.4121    200.98623   -1037.4259   -58.169783     14.82279     14.82279     14.82279            0            0            0 
  416700    300.54897   -1241.4693    222.47671   -1018.9926    445.61056    14.765534    14.765534    14.765534            0            0            0 
  416800    286.70206   -1216.0146    212.22676   -1003.7879   -503.80641    14.896875    14.896875    14.896875            0            0            0 
  416900    312.89171   -1214.6364    231.61324   -983.02318   -1538.7786    14.874085    14.874085    14.874085            0            0            0 
  417000    276.29518   -1215.7228    204.52322   -1011.1996   -507.74232    14.800994    14.800994    14.800994            0            0            0 
  417100    278.92237   -1209.6364    206.46796   -1003.1685   -249.72686    15.105028    15.105028    15.105028            0            0            0 
  417200    294.92485   -1205.8964    218.31355   -987.58281   -602.07831    15.156981    15.156981    15.156981            0            0            0 
  417300    303.50091   -1181.9925    224.66184   -957.33064    295.08764    14.969503    14.969503    14.969503            0            0            0 
  417400    302.52798   -1184.1837    223.94164    -960.2421   -169.88099      14.9632      14.9632      14.9632            0            0            0 
  417500    297.43303   -1199.3855    220.17019    -979.2153    2433.4247    14.854755    14.854755    14.854755            0            0            0 
  417600    337.75311   -1215.8526     250.0165   -965.83608   -595.31465    14.931802    14.931802    14.931802            0            0            0 
  417700    313.57058   -1209.1223    232.11576   -977.00652    14.152191    14.809803    14.809803    14.809803            0            0            0 
  417800    287.59987   -1219.0205    212.89135   -1006.1292   -1405.6681    14.839902    14.839902    14.839902            0            0            0 
  417900    273.31721    -1203.862    202.31882   -1001.5431    48.458688    14.988277    14.988277    14.988277            0            0            0 
  418000    291.38262   -1217.6123    215.69146   -1001.9208   -209.11955    14.926785    14.926785    14.926785            0            0            0 
  418100    278.12303   -1198.1638    205.87626   -992.28757    374.09181    14.878675    14.878675    14.878675            0            0            0 
  418200    301.41375   -1220.2566    223.11685   -997.13978   -3054.1763    15.153445    15.153445    15.153445            0            0            0 
  418300    305.54964   -1235.4367    226.17839   -1009.2583   -1991.5798    15.040776    15.040776    15.040776            0            0            0 
  418400    285.33325   -1221.0096    211.21351   -1009.7961    624.40266    14.946721    14.946721    14.946721            0            0            0 
  418500    306.93082   -1208.6688    227.20078   -981.46807   -2063.1139     15.05349     15.05349     15.05349            0            0            0 
  418600    310.83065   -1227.2228    230.08757   -997.13522   -537.18879    14.796746    14.796746    14.796746            0            0            0 
  418700    281.63498   -1197.3803    208.47593   -988.90442   -352.22165    14.852008    14.852008    14.852008            0            0            0 
  418800     286.8157   -1205.0141    212.31088   -992.70326      1297.69    14.819876    14.819876    14.819876            0            0            0 
  418900    301.75557   -1208.0297    223.36988   -984.65983    -1070.547    14.930807    14.930807    14.930807            0            0            0 
  419000    298.59454   -1213.4958    221.02998   -992.46582    1013.5888    14.750977    14.750977    14.750977            0            0            0 
  419100    302.75224   -1195.2301    224.10765   -971.12244   -2437.0767    14.884041    14.884041    14.884041            0            0            0 
  419200       287.49   -1206.3827    212.81002   -993.57272    65.490967    14.756891    14.756891    14.756891            0            0            0 
  419300    283.49219   -1210.2823     209.8507   -1000.4316   -363.20415    14.834593    14.834593    14.834593            0            0            0 
  419400    298.16524   -1192.2896     220.7122   -971.57741   -3137.4113    15.140394    15.140394    15.140394            0            0            0 
  419500    303.34831   -1165.4157    224.54888   -940.86678    2607.9649    14.892773    14.892773    14.892773            0            0            0 
  419600    316.46586   -1180.7383    234.25895   -946.47937   -2739.5989    14.915259    14.915259    14.915259            0            0            0 
  419700    309.06442   -1209.1719    228.78014   -980.39173    1003.8133    14.729551    14.729551    14.729551            0            0            0 
  419800    297.72659   -1210.7098     220.3875   -990.32227   -1906.9014    14.836841    14.836841    14.836841            0            0            0 
  419900    300.00471   -1188.3664    222.07384   -966.29255    101.35755    14.763176    14.763176    14.763176            0            0            0 
  420000    333.01024   -1213.9145    246.50567   -967.40882   -747.28349    14.810973    14.810973    14.810973            0            0            0 
  420100    311.91554   -1207.4961    230.89064   -976.60543   -117.40395    14.852113    14.852113    14.852113            0            0            0 
  420200    309.79235   -1208.2513    229.31899   -978.93235   -1103.6125     14.85347     14.85347     14.85347            0            0            0 
  420300    307.84827   -1210.1145    227.87991    -982.2346   -2320.5209    14.862128    14.862128    14.862128            0            0            0 
  420400    305.09825   -1201.5449    225.84425   -975.70063    2315.7358    14.660804    14.660804    14.660804            0            0            0 
  420500    311.46778   -1200.5783    230.55919   -970.01914   -698.21177    14.847464    14.847464    14.847464            0            0            0 
  420600    315.04374   -1219.4618    233.20624   -986.25559    2312.0219    14.709052    14.709052    14.709052            0            0            0 
  420700    295.85895   -1190.6385      219.005   -971.63347    -1066.248    14.919755    14.919755    14.919755            0            0            0 
  420800    313.24398   -1204.4083      231.874   -972.53427   -455.47812    15.139939    15.139939    15.139939            0            0            0 
  420900    308.25992   -1243.7314    228.18463   -1015.5467     2731.889    15.037907    15.037907    15.037907            0            0            0 
  421000    282.73298   -1208.5566     209.2887   -999.26793    1052.7087    15.122822    15.122822    15.122822            0            0            0 
  421100    284.68094   -1186.7515    210.73065   -976.02088    -526.5535    15.146304    15.146304    15.146304            0            0            0 
  421200    283.87563   -1175.8776    210.13454   -965.74304    51.946847    15.166096    15.166096    15.166096            0            0            0 
  421300    312.37787   -1188.7724    231.23288   -957.53954    78.703663    14.948206    14.948206    14.948206            0            0            0 
  421400    285.26151   -1197.3077    211.16041    -986.1473   -812.53764    14.951567    14.951567    14.951567            0            0            0 
  421500    327.06133    -1207.136    242.10208   -965.03395    465.02033    14.942936    14.942936    14.942936            0            0            0 
  421600    296.29874   -1180.9122    219.33055   -961.58169    1077.3006    14.967769    14.967769    14.967769            0            0            0 
  421700    313.98312   -1204.5638    232.42114   -972.14262   -588.18013    14.891618    14.891618    14.891618            0            0            0 
  421800    306.04489   -1208.9439    226.54499   -982.39896   -1236.2848    14.966611    14.966611    14.966611            0            0            0 
  421900    289.57305   -1181.1151    214.35196   -966.76313    1840.2028    14.937276    14.937276    14.937276            0            0            0 
  422000    341.53776   -1202.5658    252.81803    -949.7478     365.3124    15.046661    15.046661    15.046661            0            0            0 
  422100     281.1097   -1167.8535    208.08709   -959.76641    731.71375    15.043632    15.043632    15.043632            0            0            0 
  422200    290.13108   -1190.6766    214.76503   -975.91155   -4.5807272    15.063808    15.063808    15.063808            0            0            0 
  422300    292.84595   -1207.9752    216.77468   -991.20051     1659.843     15.01328     15.01328     15.01328            0            0            0 
  422400    286.24894   -1187.9579    211.89134    -976.0666   -1479.4726    15.030411    15.030411    15.030411            0            0            0 
  422500    336.39894   -1207.7727     249.0141   -958.75857   -17.735168    14.903897    14.903897    14.903897            0            0            0 
  422600    309.95316   -1188.4699    229.43802   -959.03189   -29.422511    14.992011    14.992011    14.992011            0            0            0 
  422700    328.13766   -1195.2824    242.89881   -952.38355    1381.1016    14.814891    14.814891    14.814891            0            0            0 
  422800    273.95498   -1204.1278    202.79093   -1001.3369   -634.31866    14.953672    14.953672    14.953672            0            0            0 
  422900    290.41761   -1191.0364    214.97713   -976.05923   -960.11073    14.873917    14.873917    14.873917            0            0            0 
  423000    300.11929   -1198.6132    222.15865   -976.45456   -76.797966    14.797819    14.797819    14.797819            0            0            0 
  423100    278.29306   -1183.6669    206.00213   -977.66477    2063.5674    14.705867    14.705867    14.705867            0            0            0 
  423200    286.82015   -1195.4856    212.31417   -983.17143    -565.5947    14.863113    14.863113    14.863113            0            0            0 
  423300    285.26891   -1226.6388    211.16588   -1015.4729   -373.19555    14.899499    14.899499    14.899499            0            0            0 
  423400    304.54902   -1196.5394    225.43769   -971.10169     313.8071    14.854379    14.854379    14.854379            0            0            0 
  423500     295.7373   -1213.4684    218.91495   -994.55343    103.83972    14.882557    14.882557    14.882557            0            0            0 
  423600    285.89604   -1194.4398    211.63011   -982.80968   -2966.0457    15.131017    15.131017    15.131017            0            0            0 
  423700    320.70835   -1190.8765    237.39938    -953.4771    3063.4865    14.763392    14.763392    14.763392            0            0            0 
  423800    308.87118   -1222.7423     228.6371   -994.10524    852.45497    14.819218    14.819218    14.819218            0            0            0 
  423900    299.87921   -1214.3844    221.98094   -992.40345   -1273.5706    14.916032    14.916032    14.916032            0            0            0 
  424000    298.67687   -1206.7925    221.09092    -985.7016    1328.8815    15.012454    15.012454    15.012454            0            0            0 
  424100     296.0562   -1225.0757    219.15102   -1005.9247   -453.73886     15.09204     15.09204     15.09204            0            0            0 
  424200    280.27381   -1203.7893    207.46834     -996.321    2059.1584    14.936931    14.936931    14.936931            0            0            0 
  424300    282.53117   -1221.9272    209.13932   -1012.7878   -549.61129    15.042725    15.042725    15.042725            0            0            0 
  424400    296.05809   -1195.8268    219.15241   -976.67434    -517.7822    15.048497    15.048497    15.048497            0            0            0 
  424500    286.20213    -1206.389    211.85669   -994.53233   -566.13367    15.065003    15.065003    15.065003            0            0            0 
  424600    297.96029   -1239.9393    220.56048   -1019.3789    1919.2918    14.830539    14.830539    14.830539            0            0            0 
  424700    305.41781   -1223.9138     226.0808   -997.83304   -1832.1752     15.08125     15.08125     15.08125            0            0            0 
  424800    297.01504   -1209.5121    219.86078    -989.6513    1057.5424    14.856167    14.856167    14.856167            0            0            0 
  424900     302.3907   -1200.1765    223.84003   -976.33647    719.20462    14.949662    14.949662    14.949662            0            0            0 
  425000    294.31458   -1200.2331    217.86181   -982.37134   -1222.6588    14.990144    14.990144    14.990144            0            0            0 
  425100    326.57859   -1191.2205    241.74474   -949.47577    688.25814     14.94296     14.94296     14.94296            0            0            0 
  425200     306.5217   -1198.2013    226.89794   -971.30334    1625.5756    14.829637    14.829637    14.829637            0            0            0 
  425300    301.79092   -1208.7051    223.39605    -985.3091   -744.78226    14.955522    14.955522    14.955522            0            0            0 
  425400    291.71267   -1233.7981    215.93578   -1017.8623    884.57691     14.94359     14.94359     14.94359            0            0            0 
  425500    274.53014   -1206.7505    203.21668   -1003.5338   -268.68869    14.945583    14.945583    14.945583            0            0            0 
  425600    301.99828   -1218.8246    223.54955   -995.27509   -2325.1221    14.934638    14.934638    14.934638            0            0            0 
  425700    314.45059   -1219.4854    232.76717   -986.71822    1552.0367    14.846424    14.846424    14.846424            0            0            0 
  425800    290.53557   -1219.7769    215.06445   -1004.7124    775.76151    14.935306    14.935306    14.935306            0            0            0 
  425900    311.99213   -1203.3237    230.94734   -972.37638   -359.48231    15.110617    15.110617    15.110617            0            0            0 
  426000    279.33673   -1216.9201    206.77468   -1010.1454     583.9424    14.925284    14.925284    14.925284            0            0            0 
  426100    296.24465   -1225.0742    219.29051   -1005.7837    507.53397    14.947662    14.947662    14.947662            0            0            0 
  426200    310.06934    -1232.411    229.52402    -1002.887    2139.9451    14.865911    14.865911    14.865911            0            0            0 
  426300    318.36975   -1208.6037    235.66827   -972.93541   -496.72625    15.060251    15.060251    15.060251            0            0            0 
  426400    323.67807   -1210.1522    239.59767   -970.55452    65.706193    15.026321    15.026321    15.026321            0            0            0 
  426500    311.98429   -1229.5282    230.94153   -998.58664   -302.94346    15.001263    15.001263    15.001263            0            0            0 
  426600    274.82824   -1234.6712    203.43735   -1031.2339   -1104.3466     14.98851     14.98851     14.98851            0            0            0 
  426700    279.62176   -1231.9731    206.98567   -1024.9874    523.99492    14.846093    14.846093    14.846093            0            0            0 
  426800    285.73181   -1231.3284    211.50854   -1019.8199   -1532.9002    14.886111    14.886111    14.886111            0            0            0 
  426900    298.54058   -1224.6554    220.99004   -1003.6654   -811.94126     14.91085     14.91085     14.91085            0            0            0 
  427000    275.05429   -1216.2913    203.60468   -1012.6867    26.434543    15.007273    15.007273    15.007273            0            0            0 
  427100    266.00666   -1221.3665    196.90731   -1024.4592   -1340.8395    14.994464    14.994464    14.994464            0            0            0 
  427200    286.12061   -1206.6016    211.79634   -994.80529    982.51453    14.852449    14.852449    14.852449            0            0            0 
  427300    280.89312   -1209.5238    207.92678    -1001.597   -2750.9111    14.973261    14.973261    14.973261            0            0            0 
  427400    305.84507   -1213.4284    226.39707   -987.03136   -250.49802    14.906121    14.906121    14.906121            0            0            0 
  427500    313.78141   -1176.1147    232.27182   -943.84292   -2656.1555    15.070336    15.070336    15.070336            0            0            0 
  427600    290.80617   -1180.1817    215.26476   -964.91696   -8.7384953    14.912492    14.912492    14.912492            0            0            0 
  427700    294.57975   -1205.0763    218.05809    -987.0182    1722.0066    14.811172    14.811172    14.811172            0            0            0 
  427800    288.11045   -1213.3733    213.26929    -1000.104   -598.32227    14.941033    14.941033    14.941033            0            0            0 
  427900    318.30441   -1194.3499    235.61991   -958.72999   -864.18452    15.017091    15.017091    15.017091            0            0            0 
  428000    310.79361    -1173.792    230.06015   -943.73184    694.16828    14.871656    14.871656    14.871656            0            0            0 
  428100    268.40064   -1172.6798    198.67941   -974.00034    1139.9309    14.820303    14.820303    14.820303            0            0            0 
  428200    291.85154   -1187.4344    216.03858   -971.39577      414.733    15.068679    15.068679    15.068679            0            0            0 
  428300    284.02016   -1197.2774    210.24152    -987.0359    1115.9058    15.122489    15.122489    15.122489            0            0            0 
  428400    308.45172   -1205.7769     228.3266   -977.45034    328.42627     15.12038     15.12038     15.12038            0            0            0 
  428500    303.21883   -1203.7812    224.45304   -979.32821   -349.14646    15.207955    15.207955    15.207955            0            0            0 
  428600    301.14893    -1211.312    222.92082   -988.39115    129.97954    15.154584    15.154584    15.154584            0            0            0 
  428700    294.19799   -1209.8415     217.7755   -992.06599   -1091.4957    15.032541    15.032541    15.032541            0            0            0 
  428800    303.61655   -1195.2144    224.74744   -970.46693   -1351.8016    14.898864    14.898864    14.898864            0            0            0 
  428900    308.10752   -1212.4109    228.07181   -984.33904    1169.6309     14.83962     14.83962     14.83962            0            0            0 
  429000    288.65805   -1185.7322    213.67465   -972.05759   -129.05529     15.06303     15.06303     15.06303            0            0            0 
  429100     290.0481   -1195.2418    214.70361   -980.53817    517.32837    14.968412    14.968412    14.968412            0            0            0 
  429200    300.17741   -1191.3702    222.20167   -969.16849   -1205.9713    14.977652    14.977652    14.977652            0            0            0 
  429300    313.87306   -1197.4213    232.33967    -965.0816   -1270.9533    14.906409    14.906409    14.906409            0            0            0 
  429400     314.8096   -1201.8345    233.03293   -968.80159    826.39695    14.907723    14.907723    14.907723            0            0            0 
  429500    294.32726    -1208.429    217.87119   -990.55776   -734.21359     14.94488     14.94488     14.94488            0            0            0 
  429600    320.48314   -1210.0578    237.23268   -972.82516    2.4508825    14.865113    14.865113    14.865113            0            0            0 
  429700    301.76237   -1231.0708    223.37492   -1007.6959   -1218.3557    14.947903    14.947903    14.947903            0            0            0 
  429800    300.79436   -1197.7201    222.65836    -975.0617      2012.47    14.846155    14.846155    14.846155            0            0            0 
  429900    281.91746   -1186.3376    208.68503   -977.65257   -1078.3535    14.967393    14.967393    14.967393            0            0            0 
  430000    326.27472   -1180.4619     241.5198   -938.94214    985.49769    14.877854    14.877854    14.877854            0            0            0 
  430100    288.69836   -1179.3955    213.70448   -965.69097     55.37785     14.91756     14.91756     14.91756            0            0            0 
  430200     300.0104   -1186.5402    222.07805   -964.46212   -542.54208    15.026134    15.026134    15.026134            0            0            0 
  430300    288.87155   -1197.8824    213.83268   -984.04976    71.018003    15.049944    15.049944    15.049944            0            0            0 
  430400     323.7586   -1204.0238    239.65729   -964.36647    1681.8549    14.810452    14.810452    14.810452            0            0            0 
  430500    274.90707   -1208.0698    203.49569   -1004.5741   -517.54613    14.956323    14.956323    14.956323            0            0            0 
  430600    290.46731   -1212.2582    215.01392   -997.24429    177.65679    14.859177    14.859177    14.859177            0            0            0 
  430700    303.17077   -1194.8704    224.41746   -970.45294    -1732.111    14.843845    14.843845    14.843845            0            0            0 
  430800    312.26629   -1218.5225    231.15028   -987.37225   -778.25008    14.888484    14.888484    14.888484            0            0            0 
  430900    286.02174    -1198.545    211.72316   -986.82188    1012.4418    14.935543    14.935543    14.935543            0            0            0 
  431000      320.248   -1215.8433    237.05861    -978.7847    819.70075    15.066309    15.066309    15.066309            0            0            0 
  431100    295.81363   -1190.5427    218.97146   -971.57126    -412.0784    15.233815    15.233815    15.233815            0            0            0 
  431200    305.49407   -1188.7333    226.13725    -962.5961    910.22813    15.099533    15.099533    15.099533            0            0            0 
  431300    300.41099    -1170.173    222.37457   -947.79843    41.686422    15.048554    15.048554    15.048554            0            0            0 
  431400    286.48412   -1182.2128    212.06543   -970.14739   -1184.6438    15.128123    15.128123    15.128123            0            0            0 
  431500     297.7903   -1189.8326    220.43465   -969.39793    704.35817    15.144054    15.144054    15.144054            0            0            0 
  431600    313.70434   -1181.8471    232.21477   -949.63234   -378.58727    15.363246    15.363246    15.363246            0            0            0 
  431700     330.2767   -1167.6589    244.48221    -923.1767   -367.75202    15.382434    15.382434    15.382434            0            0            0 
  431800     309.2303   -1167.9992    228.90294   -939.09625    91.952559    15.316695    15.316695    15.316695            0            0            0 
  431900    286.99083   -1186.8955    212.44051   -974.45495   -151.35903    15.157434    15.157434    15.157434            0            0            0 
  432000     299.6285   -1185.9506    221.79535   -964.15529    579.31346    15.150094    15.150094    15.150094            0            0            0 
  432100    300.96046   -1169.1527    222.78132   -946.37142   -896.40884    15.292515    15.292515    15.292515            0            0            0 
  432200    284.03477   -1181.5321    210.25234    -971.2798   -797.17787    15.319466    15.319466    15.319466            0            0            0 
  432300    275.74285   -1202.0714    204.11437   -997.95704     1353.059    15.049708    15.049708    15.049708            0            0            0 
  432400    308.78386   -1206.5518    228.57247   -977.97929   -520.97334    14.994398    14.994398    14.994398            0            0            0 
  432500    294.84443   -1195.9851    218.25402   -977.73105    1532.9147    14.897474    14.897474    14.897474            0            0            0 
  432600    346.56076   -1235.5756    256.53623   -979.03933   -2343.9172    14.990546    14.990546    14.990546            0            0            0 
  432700    305.77369   -1194.3986    226.34423   -968.05438   -364.22135    14.976518    14.976518    14.976518            0            0            0 
  432800    316.46831   -1195.7917    234.26076    -961.5309    530.25199    14.950329    14.950329    14.950329            0            0            0 
  432900    280.91704   -1229.1505    207.94448    -1021.206   -1127.0791    14.884036    14.884036    14.884036            0            0            0 
  433000    300.24397   -1187.1057    222.25094   -964.85475    1146.4957    14.907946    14.907946    14.907946            0            0            0 
  433100    304.30543   -1198.8168    225.25738   -973.55945    -427.7965    14.886328    14.886328    14.886328            0            0            0 
  433200    285.01455   -1197.2249     210.9776   -986.24735    2657.8565    14.677831    14.677831    14.677831            0            0            0 
  433300    302.09997   -1226.0728    223.62482    -1002.448    113.43856    14.697346    14.697346    14.697346            0            0            0 
  433400    296.09563    -1239.221     219.1802   -1020.0408    293.09262    14.729047    14.729047    14.729047            0            0            0 
  433500    294.67381   -1212.0319    218.12772   -993.90418    1778.0487    14.697369    14.697369    14.697369            0            0            0 
  433600    296.94399   -1217.5427    219.80819   -997.73454   -1233.8406     14.83419     14.83419     14.83419            0            0            0 
  433700     277.6863   -1210.0697    205.55298   -1004.5167    184.07085     14.81197     14.81197     14.81197            0            0            0 
  433800    293.63927   -1198.7184    217.36192   -981.35646    750.16968    14.847584    14.847584    14.847584            0            0            0 
  433900    280.49039   -1200.4653    207.62866   -992.83667   -636.96256    14.909504    14.909504    14.909504            0            0            0 
  434000    294.67987   -1212.7316     218.1322   -994.59939    -371.9435     14.86417     14.86417     14.86417            0            0            0 
  434100    264.62325   -1209.5248    195.88326   -1013.6415    1713.1625    14.747791    14.747791    14.747791            0            0            0 
  434200    290.89533   -1215.3375    215.33076   -1000.0067   -1877.2388    14.984457    14.984457    14.984457            0            0            0 
  434300    308.61553   -1207.1131    228.44786   -978.66523    294.00051    14.942526    14.942526    14.942526            0            0            0 
  434400    314.80969   -1203.4427      233.033   -970.40967   -1763.7105    14.951103    14.951103    14.951103            0            0            0 
  434500     315.1163   -1188.1761    233.25996   -954.91618    2239.5167     14.84356     14.84356     14.84356            0            0            0 
  434600    295.51454   -1199.4019    218.75006   -980.65181   -2704.3638    15.210108    15.210108    15.210108            0            0            0 
  434700    309.26749   -1206.0523    228.93046   -977.12186   -2067.1934     15.09416     15.09416     15.09416            0            0            0 
  434800    297.59646   -1183.7621    220.29117   -963.47095    514.76872    15.075504    15.075504    15.075504            0            0            0 
  434900    316.26282   -1208.4105    234.10865   -974.30189    3323.4806    14.844756    14.844756    14.844756            0            0            0 
  435000    276.44371   -1187.7772    204.63317   -983.14404    -308.4851      14.8893      14.8893      14.8893            0            0            0 
  435100    298.72234   -1208.1557    221.12458   -987.03108    625.37775    14.878655    14.878655    14.878655            0            0            0 
  435200    291.05714   -1213.4093    215.45054   -997.95878    1634.7473    14.817706    14.817706    14.817706            0            0            0 
  435300    304.22055   -1209.1403    225.19455   -983.94579   -2443.6123    15.093216    15.093216    15.093216            0            0            0 
  435400    329.35717   -1217.9873    243.80154    -974.1858    524.41205    14.883711    14.883711    14.883711            0            0            0 
  435500    302.46518   -1184.8995    223.89516   -961.00432    303.72973    14.848426    14.848426    14.848426            0            0            0 
  435600    321.06063   -1176.7056    237.66016   -939.04542    1215.5972    14.843584    14.843584    14.843584            0            0            0 
  435700    299.00325    -1168.631    221.33252   -947.29846   -655.77403    14.944642    14.944642    14.944642            0            0            0 
  435800    296.48324   -1217.5044    219.46712   -998.03733    -145.8006    14.634194    14.634194    14.634194            0            0            0 
  435900    292.17702   -1227.7928    216.27951   -1011.5133   -112.23632    14.727972    14.727972    14.727972            0            0            0 
  436000    295.72149    -1200.768    218.90325   -981.86472    -173.7944    14.971041    14.971041    14.971041            0            0            0 
  436100    305.66705   -1198.0941     226.2653   -971.82877    726.72091    15.018024    15.018024    15.018024            0            0            0 
  436200    315.64427   -1214.8692    233.65077   -981.21842    1601.9515    14.909026    14.909026    14.909026            0            0            0 
  436300     303.6542   -1219.3828    224.77532   -994.60753   -267.90119    14.917092    14.917092    14.917092            0            0            0 
  436400    285.83173   -1201.2144    211.58251    -989.6319   -515.58106    15.025445    15.025445    15.025445            0            0            0 
  436500    285.75165   -1205.7483    211.52323    -994.2251    551.07005    14.995743    14.995743    14.995743            0            0            0 
  436600    284.95446   -1186.8653    210.93312   -975.93219   -1085.7615     15.05064     15.05064     15.05064            0            0            0 
  436700    339.38091   -1207.4663    251.22146   -956.24487     351.0535    14.978561    14.978561    14.978561            0            0            0 
  436800    314.41006    -1187.561    232.73717    -954.8238   -1810.6379    15.063366    15.063366    15.063366            0            0            0 
  436900    292.89564   -1201.2676    216.81146   -984.45618    555.09738    15.031071    15.031071    15.031071            0            0            0 
  437000    289.31388   -1198.3152    214.16011   -984.15512    538.32467    15.246366    15.246366    15.246366            0            0            0 
  437100    293.17711    -1201.291    217.01981   -984.27114    4089.8821     15.05727     15.05727     15.05727            0            0            0 
  437200    277.74574   -1200.3771    205.59697   -994.78012     60.32033     15.25091     15.25091     15.25091            0            0            0 
  437300     299.8147   -1209.7532    221.93318   -987.81998    1270.9838    15.263691    15.263691    15.263691            0            0            0 
  437400    291.56326   -1184.2474    215.82518   -968.42217   -963.96973    15.401346    15.401346    15.401346            0            0            0 
  437500    308.53509   -1198.9183    228.38832   -970.52998    858.32214    15.111519    15.111519    15.111519            0            0            0 
  437600    300.62427   -1200.3721    222.53245   -977.83962   -1699.6327    15.193152    15.193152    15.193152            0            0            0 
  437700    298.02931   -1209.9146    220.61158   -989.30299   -431.04796    15.231076    15.231076    15.231076            0            0            0 
  437800    285.42927   -1194.7838    211.28459   -983.49916    241.77814    15.307299    15.307299    15.307299            0            0            0 
  437900     309.6641   -1212.6727    229.22405   -983.44864   -561.18827    15.230293    15.230293    15.230293            0            0            0 
  438000    289.35494   -1221.8144    214.19051   -1007.6239    925.03971    15.144979    15.144979    15.144979            0            0            0 
  438100    328.27526   -1224.7626    243.00067   -981.76189    1571.9588    15.151289    15.151289    15.151289            0            0            0 
  438200    302.74514   -1220.7164    224.10239   -996.61397    300.10224    15.126483    15.126483    15.126483            0            0            0 
  438300    299.51747   -1233.9088    221.71316   -1012.1956    -530.0505    14.949405    14.949405    14.949405            0            0            0 
  438400    285.20301   -1223.0552    211.11711   -1011.9381   -1592.8465     14.92775     14.92775     14.92775            0            0            0 
  438500    310.10771   -1219.9695    229.55242   -990.41712    25.866072    14.938163    14.938163    14.938163            0            0            0 
  438600    310.24578   -1196.9322    229.65463   -967.27752   -551.10255    15.190047    15.190047    15.190047            0            0            0 
  438700    312.01046   -1205.5165    230.96091   -974.55558    2347.4548    15.050163    15.050163    15.050163            0            0            0 
  438800    298.70883   -1201.7734    221.11458   -980.65886    1208.3512    15.096698    15.096698    15.096698            0            0            0 
  438900    277.38711   -1197.2929    205.33151   -991.96136    3371.1031    14.979403    14.979403    14.979403            0            0            0 
  439000    312.64207    -1229.879    231.42845   -998.45052   -702.16796    15.206151    15.206151    15.206151            0            0            0 
  439100    303.31228   -1209.5357    224.52222   -985.01352     757.4421    15.085304    15.085304    15.085304            0            0            0 
  439200    306.88829   -1210.7713     227.1693   -983.60195    1252.2304    14.973915    14.973915    14.973915            0            0            0 
  439300    286.22964   -1187.8553    211.87705   -975.97821   -1922.0791    15.219561    15.219561    15.219561            0            0            0 
  439400     320.5565   -1202.7558    237.28698   -965.46882    78.430547    15.083629    15.083629    15.083629            0            0            0 
  439500    282.88426   -1209.0745    209.40069   -999.67384    989.58768    14.976004    14.976004    14.976004            0            0            0 
  439600    267.95952   -1201.6969    198.35288    -1003.344    840.13192    14.938528    14.938528    14.938528            0            0            0 
  439700    301.25279   -1221.7793    222.99771   -998.78163    1175.9886    14.962231    14.962231    14.962231            0            0            0 
  439800    286.41167   -1235.2371     212.0118   -1023.2253    1296.2727    15.073655    15.073655    15.073655            0            0            0 
  439900    289.81823   -1223.0594    214.53345    -1008.526    493.78394    15.146684    15.146684    15.146684            0            0            0 
  440000    299.61102   -1204.3744    221.78242   -982.59195   -690.65284    15.209375    15.209375    15.209375            0            0            0 
  440100    303.28155   -1197.7669    224.49946   -973.26745   -2566.9576    15.359351    15.359351    15.359351            0            0            0 
  440200    302.88717    -1188.455    224.20753    -964.2475    735.80632    15.115762    15.115762    15.115762            0            0            0 
  440300    304.75129   -1182.0527    225.58741    -956.4653   -1434.4568    15.239275    15.239275    15.239275            0            0            0 
  440400     290.8402   -1176.8512    215.28995    -961.5613   -366.96028    15.128998    15.128998    15.128998            0            0            0 
  440500    283.40543   -1222.0559    209.78647   -1012.2694    63.985188    14.950397    14.950397    14.950397            0            0            0 
  440600    289.05416    -1221.949    213.96786   -1007.9812    101.99985    14.820226    14.820226    14.820226            0            0            0 
  440700    286.12067   -1195.9424    211.79639   -984.14602    85.433321    14.972655    14.972655    14.972655            0            0            0 
  440800    274.33338   -1201.4892    203.07103   -998.41815     1530.336    14.925272    14.925272    14.925272            0            0            0 
  440900    286.42826    -1200.576    212.02408   -988.55196     -1601.77    15.016468    15.016468    15.016468            0            0            0 
  441000    309.21884   -1187.7339    228.89445   -958.83942    1617.9122     14.93477     14.93477     14.93477            0            0            0 
  441100    304.17856   -1217.2175    225.16347   -992.05406    1505.2251     14.95351     14.95351     14.95351            0            0            0 
  441200    302.89513   -1220.8187    224.21343   -996.60526   -153.98897     14.88196     14.88196     14.88196            0            0            0 
  441300    307.74865   -1183.5943    227.80616   -955.78816    682.25515    14.949323    14.949323    14.949323            0            0            0 
  441400    291.04522   -1172.6255    215.44171   -957.18376    1238.6886    15.108386    15.108386    15.108386            0            0            0 
  441500    293.02415   -1203.2397    216.90659    -986.3331   -1579.1169    14.996862    14.996862    14.996862            0            0            0 
  441600    310.05725   -1194.1075    229.51507   -964.59244    1265.7598    14.929704    14.929704    14.929704            0            0            0 
  441700    338.46976   -1204.5982    250.54699   -954.05116    2236.1902    14.891904    14.891904    14.891904            0            0            0 
  441800    316.58409   -1219.9339    234.34646    -985.5874   -671.26938    15.036448    15.036448    15.036448            0            0            0 
  441900    285.45229    -1200.332    211.30163   -989.03041   -49.724422    15.020845    15.020845    15.020845            0            0            0 
  442000    298.46046    -1214.118    220.93073   -993.18728    93.268023    15.055605    15.055605    15.055605            0            0            0 
  442100    266.74692   -1215.9593    197.45527    -1018.504     1984.996    15.030806    15.030806    15.030806            0            0            0 
  442200    287.92225   -1215.1595    213.12998   -1002.0295   -135.19839    15.083854    15.083854    15.083854            0            0            0 
  442300     297.4269   -1221.4928    220.16565   -1001.3271   -1628.0563    14.931442    14.931442    14.931442            0            0            0 
  442400    305.37921   -1225.1752    226.05222   -999.12297    1673.3012    14.875236    14.875236    14.875236            0            0            0 
  442500    281.93803   -1205.8155    208.70026   -997.11523     240.2832    15.076339    15.076339    15.076339            0            0            0 
  442600     313.5682   -1201.8632      232.114   -969.74923   -19.423504     15.01621     15.01621     15.01621            0            0            0 
  442700    289.90257   -1190.7124    214.59589   -976.11651    329.74439    15.003222    15.003222    15.003222            0            0            0 
  442800    305.14553    -1226.501    225.87925   -1000.6218    2172.7891     14.74733     14.74733     14.74733            0            0            0 
  442900    279.94872   -1215.2451     207.2277   -1008.0174   -355.85305    14.998421    14.998421    14.998421            0            0            0 
  443000    316.33807    -1241.822    234.16435   -1007.6576   -64.874779    14.964517    14.964517    14.964517            0            0            0 
  443100    310.80934   -1236.4426     230.0718   -1006.3708   -1479.7917    15.081474    15.081474    15.081474            0            0            0 
  443200    284.87153   -1211.6188    210.87173   -1000.7471    568.55852    15.017648    15.017648    15.017648            0            0            0 
  443300    328.01612   -1226.4229    242.80885   -983.61404    115.27789    14.898586    14.898586    14.898586            0            0            0 
  443400    306.32392   -1193.3762    226.75154   -966.62468    956.98463     14.99506     14.99506     14.99506            0            0            0 
  443500    306.47307   -1221.5426    226.86194    -994.6807    1922.5005    14.830926    14.830926    14.830926            0            0            0 
  443600    267.03502   -1188.9244    197.66853   -991.25589   -884.25722    15.174894    15.174894    15.174894            0            0            0 
  443700     289.9074   -1207.9703    214.59946   -993.37083   -800.51743    15.263438    15.263438    15.263438            0            0            0 
  443800    276.04634   -1185.0157    204.33902   -980.67671    916.21517    15.207199    15.207199    15.207199            0            0            0 
  443900     283.2969   -1198.7484    209.70614   -989.04229    3461.4595    15.120458    15.120458    15.120458            0            0            0 
  444000    291.62444   -1206.6542    215.87047   -990.78369   -1640.3835    15.288275    15.288275    15.288275            0            0            0 
  444100      274.621   -1198.2309    203.28394     -994.947    878.42805    15.040424    15.040424    15.040424            0            0            0 
  444200    275.76525   -1204.8232    204.13095   -1000.6923    649.14455     14.76938     14.76938     14.76938            0            0            0 
  444300    272.64933   -1196.4131    201.82444   -994.58867   -452.40782    14.813218    14.813218    14.813218            0            0            0 
  444400    294.74521   -1194.9912    218.18057    -976.8106    159.67837     14.78417     14.78417     14.78417            0            0            0 
  444500    289.52749   -1236.4067    214.31824   -1022.0884   -715.01659    14.656838    14.656838    14.656838            0            0            0 
  444600    268.22191   -1208.2208    198.54711   -1009.6737    810.05042    14.807561    14.807561    14.807561            0            0            0 
  444700    299.86191   -1213.1174    221.96813   -991.14928   -330.91562    14.974336    14.974336    14.974336            0            0            0 
  444800    302.81442    -1221.097    224.15368   -996.94328    115.53354    14.925518    14.925518    14.925518            0            0            0 
  444900    289.81264   -1214.8207    214.52931   -1000.2914    1066.5222    14.867467    14.867467    14.867467            0            0            0 
  445000    301.11295   -1196.8221    222.89419   -973.92788   -1047.8594    15.032633    15.032633    15.032633            0            0            0 
  445100    300.89916   -1200.0358    222.73594   -977.29991    1829.9212    14.854766    14.854766    14.854766            0            0            0 
  445200    330.58636   -1199.8015    244.71142   -955.09006    1928.2017    14.888369    14.888369    14.888369            0            0            0 
  445300    341.10657   -1212.6879    252.49885    -960.1891   -1978.2889    15.087968    15.087968    15.087968            0            0            0 
  445400    309.44856   -1200.8661     229.0645   -971.80159   -864.96574    15.033526    15.033526    15.033526            0            0            0 
  445500    302.52684   -1204.2645     223.9408   -980.32374   -1036.5221    15.059274    15.059274    15.059274            0            0            0 
  445600    301.50989    -1220.983    223.18802   -997.79494   -107.28022    15.023453    15.023453    15.023453            0            0            0 
  445700    284.01683   -1203.8264    210.23906   -993.58734    307.93267    14.931085    14.931085    14.931085            0            0            0 
  445800    277.91452   -1213.9475    205.72192   -1008.2256   -1754.3005    15.150072    15.150072    15.150072            0            0            0 
  445900    283.98808   -1191.2386    210.21778   -981.02079     771.0188    15.154099    15.154099    15.154099            0            0            0 
  446000    299.05259    -1209.441    221.36904   -988.07192    1817.2901    15.027316    15.027316    15.027316            0            0            0 
  446100    279.11149   -1184.1629    206.60795   -977.55497    106.00209    15.164291    15.164291    15.164291            0            0            0 
  446200    327.22138   -1208.5691    242.22056   -966.34854   -1073.1843    15.065618    15.065618    15.065618            0            0            0 
  446300    314.24364   -1221.8599    232.61398   -989.24589    504.26017    15.044127    15.044127    15.044127            0            0            0 
  446400    284.97675     -1220.23    210.94962   -1009.2804   -1367.4971    15.176239    15.176239    15.176239            0            0            0 
  446500    283.28319   -1232.4859    209.69599   -1022.7899    1029.1168    14.905755    14.905755    14.905755            0            0            0 
  446600    299.55052     -1231.45    221.73763   -1009.7123   -1230.2871    15.111578    15.111578    15.111578            0            0            0 
  446700    314.77187   -1204.6553      233.005   -971.65034    1124.4922    14.928272    14.928272    14.928272            0            0            0 
  446800    271.11579   -1223.6189    200.68926   -1022.9297   -1554.1726    15.069985    15.069985    15.069985            0            0            0 
  446900    272.02045   -1227.1333    201.35892   -1025.7744    1984.6866    15.069842    15.069842    15.069842            0            0            0 
  447000     258.7997   -1208.3123    191.57247   -1016.7398   -720.09448    15.196324    15.196324    15.196324            0            0            0 
  447100    301.67937   -1225.4784    223.31348    -1002.165    122.77284    14.974361    14.974361    14.974361            0            0            0 
  447200    336.07974   -1214.5048    248.77782   -965.72695    315.03594    15.160099    15.160099    15.160099            0            0            0 
  447300    294.74108   -1198.7294    218.17751   -980.55184    427.96892    15.093623    15.093623    15.093623            0            0            0 
  447400    299.99818   -1215.3251      222.069   -993.25609   -2087.7075     14.92357     14.92357     14.92357            0            0            0 
  447500    302.48281   -1235.7339    223.90821   -1011.8257   -2851.6496    15.031632    15.031632    15.031632            0            0            0 
  447600    327.74214   -1222.5708    242.60603   -979.96473    183.00387    14.967999    14.967999    14.967999            0            0            0 
  447700    283.14327   -1208.9033    209.59241   -999.31092     37.99808    14.998799    14.998799    14.998799            0            0            0 
  447800    305.65543   -1202.2163    226.25669   -975.95962    -113.2589    15.000649    15.000649    15.000649            0            0            0 
  447900     290.7673   -1203.4283    215.23598   -988.19235   -726.71086    15.060775    15.060775    15.060775            0            0            0 
  448000     284.5318   -1202.0689    210.62025   -991.44865    841.06038     14.93502     14.93502     14.93502            0            0            0 
  448100    258.51563   -1201.6575    191.36219   -1010.2953    516.99374     14.83855     14.83855     14.83855            0            0            0 
  448200    293.79586   -1221.7991    217.47783   -1004.3213    1546.5321    14.817604    14.817604    14.817604            0            0            0 
  448300    292.08909   -1215.7522    216.21442   -999.53781    319.62408    15.175117    15.175117    15.175117            0            0            0 
  448400    302.55534   -1190.2495     223.9619   -966.28765   -577.29022    15.279742    15.279742    15.279742            0            0            0 
  448500    320.37972   -1209.9437    237.15612   -972.78761   -2271.1337    15.210475    15.210475    15.210475            0            0            0 
  448600    318.96173   -1173.8689    236.10648   -937.76241    692.60251    15.126552    15.126552    15.126552            0            0            0 
  448700    315.31383   -1224.7525    233.40617   -991.34633     17.93658    15.050203    15.050203    15.050203            0            0            0 
  448800    281.39622   -1188.8554    208.29919   -980.55619    50.365044    15.098363    15.098363    15.098363            0            0            0 
  448900    304.53233   -1218.7908    225.42534   -993.36549    1263.9655    15.103432    15.103432    15.103432            0            0            0 
  449000    297.64339    -1191.169     220.3259   -970.84309   -1275.3473    15.217003    15.217003    15.217003            0            0            0 
  449100    297.34753   -1194.2431     220.1069   -974.13624     1814.772    14.898499    14.898499    14.898499            0            0            0 
  449200    308.90072   -1202.8336    228.65897   -974.17466   -661.93814    14.943228    14.943228    14.943228            0            0            0 
  449300    296.26505   -1203.3067    219.30561   -984.00107   -1369.9075    14.769454    14.769454    14.769454            0            0            0 
  449400    285.30369   -1202.6125    211.19164   -991.42086   -821.12734    14.870398    14.870398    14.870398            0            0            0 
  449500    277.09773   -1185.7739     205.1173   -980.65662   -1123.0445    15.006743    15.006743    15.006743            0            0            0 
  449600    285.88646   -1213.4716    211.62302   -1001.8485   -1044.6749    14.922308    14.922308    14.922308            0            0            0 
  449700    303.59408    -1209.854    224.73081   -985.12324    400.22112     14.94526     14.94526     14.94526            0            0            0 
  449800    291.58252   -1204.1189    215.83944    -988.2795    1370.8119    14.978532    14.978532    14.978532            0            0            0 
  449900    287.84063   -1222.5391    213.06956   -1009.4695    389.31264    15.045232    15.045232    15.045232            0            0            0 
  450000    306.30685   -1228.4972    226.73889   -1001.7583   -166.44525    15.025673    15.025673    15.025673            0            0            0 
  450100    298.86249   -1225.5591    221.22832   -1004.3308   -112.76547    15.039131    15.039131    15.039131            0            0            0 
  450200    292.28926   -1213.6649     216.3626   -997.30227    -207.2768    15.094724    15.094724    15.094724            0            0            0 
  450300    273.82622   -1218.1488    202.69561   -1015.4532   -559.88407    15.030291    15.030291    15.030291            0            0            0 
  450400    269.04975   -1215.5971     199.1599   -1016.4372    1921.1841    14.801936    14.801936    14.801936            0            0            0 
  450500    277.43051   -1215.2883    205.36363   -1009.9247    -94.02452    14.905375    14.905375    14.905375            0            0            0 
  450600    279.99632   -1214.9156    207.26293   -1007.6527   -981.33631    14.840905    14.840905    14.840905            0            0            0 
  450700    278.20425   -1215.1748    205.93638   -1009.2385   -147.22512    14.885835    14.885835    14.885835            0            0            0 
  450800    278.47358   -1220.2491    206.13575   -1014.1133    336.62272    14.734921    14.734921    14.734921            0            0            0 
  450900    293.71589   -1211.3856    217.41863     -993.967   -300.80076    14.843694    14.843694    14.843694            0            0            0 
  451000    266.29511   -1192.4003    197.12083   -995.27951   -1146.6519    15.181575    15.181575    15.181575            0            0            0 
  451100    288.48237    -1197.734    213.54461   -984.18936    1068.6767    15.104652    15.104652    15.104652            0            0            0 
  451200    299.56977   -1239.1989    221.75187    -1017.447    -1574.777    15.085082    15.085082    15.085082            0            0            0 
  451300    299.34926   -1223.0299    221.58865   -1001.4413    531.63435    15.035298    15.035298    15.035298            0            0            0 
  451400    320.54265   -1221.9234    237.27673   -984.64664   -110.61402    15.067741    15.067741    15.067741            0            0            0 
  451500    282.27761    -1215.556    208.95163   -1006.6043    1463.8094    14.918132    14.918132    14.918132            0            0            0 
  451600    283.26415   -1210.6806     209.6819   -1000.9988   -357.93689     15.02948     15.02948     15.02948            0            0            0 
  451700    265.57796   -1193.2066    196.58996   -996.61659    461.12321     15.07389     15.07389     15.07389            0            0            0 
  451800    284.59577   -1228.0845    210.66761   -1017.4169   -2058.6373    15.024948    15.024948    15.024948            0            0            0 
  451900    311.07919   -1243.3427    230.27155   -1013.0711    2123.8192    14.856582    14.856582    14.856582            0            0            0 
  452000    283.06337   -1201.1082    209.53327   -991.57488    311.69137    15.068213    15.068213    15.068213            0            0            0 
  452100    300.89873   -1226.3306    222.73562    -1003.595    1025.4481    14.938235    14.938235    14.938235            0            0            0 
  452200    288.78346   -1215.6316    213.76748   -1001.8642   -927.57944    15.063019    15.063019    15.063019            0            0            0 
  452300    321.19086   -1206.4814    237.75656    -968.7248    92.914655    15.062311    15.062311    15.062311            0            0            0 
  452400    302.85184   -1199.6538    224.18138   -975.47243    781.50493    14.851205    14.851205    14.851205            0            0            0 
  452500    303.73099   -1213.6774    224.83216   -988.84525   -163.91599    14.862674    14.862674    14.862674            0            0            0 
  452600     301.2295   -1222.7939    222.98047   -999.81341   -353.07902    14.959516    14.959516    14.959516            0            0            0 
  452700    306.98733   -1230.0877    227.24261   -1002.8451   -419.40685    14.956708    14.956708    14.956708            0            0            0 
  452800    310.35556   -1213.5224    229.73589   -983.78648   -940.55377    15.137818    15.137818    15.137818            0            0            0 
  452900    297.79228   -1208.7008    220.43612   -988.26472    124.64939    15.263994    15.263994    15.263994            0            0            0 
  453000    280.94145   -1213.6027    207.96255   -1005.6402    1751.4697    14.993268    14.993268    14.993268            0            0            0 
  453100    315.02321   -1208.4181    233.19105   -975.22702   -2446.0624     15.16034     15.16034     15.16034            0            0            0 
  453200     310.8793   -1221.1006    230.12358   -990.97702     155.7017     15.13384     15.13384     15.13384            0            0            0 
  453300    295.11198    -1211.384    218.45207   -992.93194    368.02866    15.044455    15.044455    15.044455            0            0            0 
  453400    312.13903   -1224.4955    231.05608   -993.43946    104.01899    14.992138    14.992138    14.992138            0            0            0 
  453500    301.57818   -1189.1194    223.23857   -965.88086    716.62154    15.093064    15.093064    15.093064            0            0            0 
  453600    310.97526   -1209.4952    230.19461   -979.30056    1964.6281      14.8994      14.8994      14.8994            0            0            0 
  453700    295.34956   -1221.1946    218.62793   -1002.5667    1436.6758    14.929666    14.929666    14.929666            0            0            0 
  453800    273.72128   -1177.4051    202.61793   -974.78721   -1520.8513    15.232592    15.232592    15.232592            0            0            0 
  453900    304.46929   -1209.2742    225.37867   -983.89558    -952.0617    15.167194    15.167194    15.167194            0            0            0 
  454000    333.81388   -1221.8107    247.10055   -974.71016    640.34403    15.161205    15.161205    15.161205            0            0            0 
  454100     325.0068   -1211.0455    240.58125   -970.46421   -346.34892    15.247598    15.247598    15.247598            0            0            0 
  454200    284.48902   -1224.8927    210.58859   -1014.3041   -29.897687    15.054698    15.054698    15.054698            0            0            0 
  454300    299.85796   -1216.3125    221.96521   -994.34729    185.04916    15.046673    15.046673    15.046673            0            0            0 
  454400    286.38713   -1190.9836    211.99363   -978.99002    2007.6392    15.059097    15.059097    15.059097            0            0            0 
  454500    320.12522   -1192.1654    236.96773   -955.19762    351.36675    15.001928    15.001928    15.001928            0            0            0 
  454600    306.75307   -1192.2339     227.0692   -965.16473   -465.04772    15.065407    15.065407    15.065407            0            0            0 
  454700     288.4251   -1203.9713    213.50221   -990.46906    -778.9244    15.165836    15.165836    15.165836            0            0            0 
  454800       293.81   -1228.2496     217.4883   -1010.7613    120.67179    15.202433    15.202433    15.202433            0            0            0 
  454900    285.66768   -1229.5417    211.46107   -1018.0806    -292.7813    15.119038    15.119038    15.119038            0            0            0 
  455000    264.76649   -1205.0526    195.98929   -1009.0634   -61.369511    15.055194    15.055194    15.055194            0            0            0 
  455100    290.90644    -1220.938    215.33898    -1005.599   -487.61531    14.947091    14.947091    14.947091            0            0            0 
  455200    274.77746   -1209.0661    203.39975   -1005.6663   -1469.8122    15.089516    15.089516    15.089516            0            0            0 
  455300     296.4637   -1181.5343    219.45266   -962.08163    188.69628    15.094213    15.094213    15.094213            0            0            0 
  455400    310.59554    -1177.106    229.91354   -947.19246   -1558.7152    15.127744    15.127744    15.127744            0            0            0 
  455500     302.0536   -1180.4073     223.5905    -956.8168    991.51191    14.994972    14.994972    14.994972            0            0            0 
  455600    303.44368   -1178.4234    224.61948   -953.80388    398.63192    15.078266    15.078266    15.078266            0            0            0 
  455700    327.09023   -1191.9769    242.12347   -949.85345    523.79892    14.946961    14.946961    14.946961            0            0            0 
  455800    277.56603   -1210.7567    205.46395   -1005.2928     1195.226    14.899823    14.899823    14.899823            0            0            0 
  455900    290.85751   -1236.5393    215.30277   -1021.2366     419.2702    14.947289    14.947289    14.947289            0            0            0 
  456000    289.01071   -1225.6504     213.9357   -1011.7147    22.699578    14.869958    14.869958    14.869958            0            0            0 
  456100    306.05209   -1200.8355    226.55032    -974.2852    -1431.551    14.884677    14.884677    14.884677            0            0            0 
  456200    320.23733   -1200.4185    237.05072   -963.36777   -34.596705    14.922914    14.922914    14.922914            0            0            0 
  456300     309.0605   -1182.0949    228.77724   -953.31768    1024.3836    14.852769    14.852769    14.852769            0            0            0 
  456400    279.92164   -1161.1662    207.20765   -953.95855    949.34938    14.898424    14.898424    14.898424            0            0            0 
  456500    306.11615    -1178.919    226.59774   -952.32125    244.94865    14.979491    14.979491    14.979491            0            0            0 
  456600    307.52571   -1183.4149    227.64114   -955.77377   -1312.1754    14.994529    14.994529    14.994529            0            0            0 
  456700    286.91386   -1163.2472    212.38354   -950.86364    1357.8061    15.132011    15.132011    15.132011            0            0            0 
  456800    310.33196   -1202.1776    229.71842   -972.45921   -1159.1847    15.219117    15.219117    15.219117            0            0            0 
  456900    301.49967   -1207.3716    223.18046   -984.19117    1700.9618    15.025047    15.025047    15.025047            0            0            0 
  457000    268.74678   -1200.4204    198.93564   -1001.4848   -591.31348    15.059975    15.059975    15.059975            0            0            0 
  457100    284.32764   -1217.6698    210.46913   -1007.2006    1258.2782    15.024832    15.024832    15.024832            0            0            0 
  457200    272.12988   -1202.6916    201.43993   -1001.2517    10.853655    14.996542    14.996542    14.996542            0            0            0 
  457300    287.11389   -1179.8008     212.5316   -967.26923    -2003.586     15.09289     15.09289     15.09289            0            0            0 
  457400    328.68652   -1183.5517     243.3051   -940.24662    309.06139    15.040097    15.040097    15.040097            0            0            0 
  457500    338.30778   -1206.6761    250.42709   -956.24905    1918.1681    14.841741    14.841741    14.841741            0            0            0 
  457600    313.97162   -1200.9628    232.41262   -968.55019   -701.62491    15.060863    15.060863    15.060863            0            0            0 
  457700    311.35595   -1188.8662    230.47642    -958.3898    1319.1354    15.159386    15.159386    15.159386            0            0            0 
  457800    300.44033   -1172.4706    222.39629   -950.07435   -1715.2405    15.220627    15.220627    15.220627            0            0            0 
  457900    304.22827   -1173.1845    225.20026    -947.9842   -1751.3066    15.091228    15.091228    15.091228            0            0            0 
  458000    274.56777   -1187.4061    203.24453   -984.16159   -182.15815     14.86908     14.86908     14.86908            0            0            0 
  458100    302.97736   -1198.3449    224.27429   -974.07062   -802.58591    14.923892    14.923892    14.923892            0            0            0 
  458200    301.79957   -1207.6233    223.40245   -984.22085    64.584402    14.956996    14.956996    14.956996            0            0            0 
  458300    308.94669   -1197.4696    228.69299   -968.77665    2226.3915    14.768818    14.768818    14.768818            0            0            0 
  458400    283.39823   -1209.9349    209.78114   -1000.1537   -2241.1553    15.007689    15.007689    15.007689            0            0            0 
  458500     306.9666   -1211.3787    227.22727   -984.15144    1041.5976    14.945688    14.945688    14.945688            0            0            0 
  458600    293.05741   -1224.3688     216.9312   -1007.4376   -115.32718    14.977041    14.977041    14.977041            0            0            0 
  458700    297.79054   -1176.3954    220.43483   -955.96055   -928.48605    15.151522    15.151522    15.151522            0            0            0 
  458800    307.92123   -1171.5599    227.93392   -943.62594   -533.75867     15.26447     15.26447     15.26447            0            0            0 
  458900    305.96909   -1194.2674    226.48888   -967.77854    820.81146    15.198804    15.198804    15.198804            0            0            0 
  459000    333.53468   -1214.1301    246.89388    -967.2362    2103.8424    14.979731    14.979731    14.979731            0            0            0 
  459100    308.42864   -1194.1163    228.30952   -965.80679   -107.37549    15.092686    15.092686    15.092686            0            0            0 
  459200    278.40781    -1180.588    206.08707   -974.50097   -1410.6528    15.057883    15.057883    15.057883            0            0            0 
  459300    281.33623   -1205.8287    208.25478   -997.57389    1353.4676    14.932666    14.932666    14.932666            0            0            0 
  459400    283.31898   -1229.8279    209.72248   -1020.1054    96.188744    14.998804    14.998804    14.998804            0            0            0 
  459500    309.08499   -1241.0126    228.79537   -1012.2172    595.41027    14.838579    14.838579    14.838579            0            0            0 
  459600    251.96892   -1205.8255    186.51609   -1019.3094    -417.8975    14.914788    14.914788    14.914788            0            0            0 
  459700    281.26138   -1213.3221    208.19937   -1005.1227    204.87042    14.747034    14.747034    14.747034            0            0            0 
  459800    275.46517   -1223.7798    203.90882   -1019.8709    405.16718    14.832712    14.832712    14.832712            0            0            0 
  459900      286.356   -1214.3202    211.97059   -1002.3496   -474.86021    15.004437    15.004437    15.004437            0            0            0 
  460000    314.48322   -1215.7647    232.79133   -982.97338    80.296287    14.986589    14.986589    14.986589            0            0            0 
  460100    297.43593    -1204.095    220.17234   -983.92264    1866.0487    14.934801    14.934801    14.934801            0            0            0 
  460200    325.47881    -1189.115    240.93064    -948.1844    27.651132    15.057163    15.057163    15.057163            0            0            0 
  460300    293.31215     -1226.31    217.11977   -1009.1902   -566.73607    14.982249    14.982249    14.982249            0            0            0 
  460400    279.10895   -1213.7178    206.60607   -1007.1117    411.05615     15.02347     15.02347     15.02347            0            0            0 
  460500     304.4149   -1215.5723    225.33841   -990.23392   -1106.5096    15.034994    15.034994    15.034994            0            0            0 
  460600    281.11104   -1226.6491    208.08809    -1018.561    1257.3431    14.991707    14.991707    14.991707            0            0            0 
  460700     280.0457   -1206.0246    207.29949   -998.72507    1704.5082    15.037137    15.037137    15.037137            0            0            0 
  460800    288.18081   -1227.8037    213.32138   -1014.4823    1088.9661    14.852476    14.852476    14.852476            0            0            0 
  460900     265.6939   -1185.3544    196.67579   -988.67865    433.47184    14.847852    14.847852    14.847852            0            0            0 
  461000    287.04384   -1199.9647    212.47975   -987.48494    435.47432    14.978339    14.978339    14.978339            0            0            0 
  461100    300.40439   -1199.2157    222.36969   -976.84597    846.85707    14.927177    14.927177    14.927177            0            0            0 
  461200    286.77755   -1185.7284    212.28264   -973.44577   -1511.7655     15.10857     15.10857     15.10857            0            0            0 
  461300     318.6029   -1205.6497    235.84086   -969.80882    3173.4808    14.892799    14.892799    14.892799            0            0            0 
  461400    305.53393   -1192.4532    226.16676   -966.28649    829.61121    15.223567    15.223567    15.223567            0            0            0 
  461500    322.85078   -1189.5358    238.98529   -950.55052    988.25561    15.191894    15.191894    15.191894            0            0            0 
  461600    300.12065    -1166.779    222.15965   -944.61931   -563.05203    15.364913    15.364913    15.364913            0            0            0 
  461700    302.85996   -1182.3238    224.18739   -958.13644    298.22819    15.348656    15.348656    15.348656            0            0            0 
  461800    302.83736   -1190.4164    224.17066   -966.24573    147.72487    15.078624    15.078624    15.078624            0            0            0 
  461900    302.48588   -1216.6819    223.91048   -992.77139   -470.97134    15.107173    15.107173    15.107173            0            0            0 
  462000    302.26573   -1189.9556    223.74752   -966.20805   -723.80145    15.295292    15.295292    15.295292            0            0            0 
  462100    316.12294   -1205.7444     234.0051   -971.73927    387.18901    15.182892    15.182892    15.182892            0            0            0 
  462200    291.06694   -1210.0322    215.45779   -994.57444   -1666.5141    15.174959    15.174959    15.174959            0            0            0 
  462300    308.62853   -1163.0385    228.45749   -934.58105   -1287.8706    15.382209    15.382209    15.382209            0            0            0 
  462400    326.98501   -1166.8215    242.04559   -924.77592    642.39562    15.210266    15.210266    15.210266            0            0            0 
  462500    327.20528   -1214.5048    242.20863   -972.29613   -571.74002    15.068151    15.068151    15.068151            0            0            0 
  462600    297.80862   -1193.3663    220.44822    -972.9181   -937.79859    15.121764    15.121764    15.121764            0            0            0 
  462700    317.81837   -1183.4553    235.26012   -948.19517    886.85739    15.086936    15.086936    15.086936            0            0            0 
  462800    308.39698   -1167.2316    228.28608   -938.94553    800.04792     15.14584     15.14584     15.14584            0            0            0 
  462900    324.30773    -1176.125    240.06377   -936.06119    1168.6416    15.052141    15.052141    15.052141            0            0            0 
  463000    269.29258   -1182.5001    199.33966   -983.16046   -1207.3671    15.112634    15.112634    15.112634            0            0            0 
  463100    283.51735   -1188.9107    209.86932   -979.04137   -920.73946    15.087003    15.087003    15.087003            0            0            0 
  463200    284.88427   -1186.4989    210.88117   -975.61777   -170.55811    15.151992    15.151992    15.151992            0            0            0 
  463300    305.86034        -1186    226.40837   -959.59165   -49.336772    15.067922    15.067922    15.067922            0            0            0 
  463400    319.71782   -1178.3213    236.66616   -941.65513    652.10336    15.123135    15.123135    15.123135            0            0            0 
  463500    307.84895   -1206.4596    227.88041   -978.57921   -385.50518    15.088575    15.088575    15.088575            0            0            0 
  463600    313.69892   -1227.4107    232.21076   -995.19991   -409.20354    14.911301    14.911301    14.911301            0            0            0 
  463700    290.31474   -1214.1744    214.90099   -999.27339    421.06565    14.876371    14.876371    14.876371            0            0            0 
  463800    278.46976   -1191.7865    206.13292   -985.65358   -16.071614    15.015879    15.015879    15.015879            0            0            0 
  463900    303.83406   -1213.7112    224.90845   -988.80273    455.97926    14.954837    14.954837    14.954837            0            0            0 
  464000    296.85011   -1202.7035    219.73869   -982.96481     -426.731    15.040334    15.040334    15.040334            0            0            0 
  464100    284.47536   -1216.2522    210.57847   -1005.6737   -2810.3044    15.057878    15.057878    15.057878            0            0            0 
  464200    291.72723   -1216.0248    215.94656   -1000.0783    540.38821    14.744993    14.744993    14.744993            0            0            0 
  464300    301.22989   -1215.6722    222.98076   -992.69144   -85.703054    14.846309    14.846309    14.846309            0            0            0 
  464400    298.92048   -1226.7061    221.27125   -1005.4348   -1065.0049    14.898531    14.898531    14.898531            0            0            0 
  464500    274.19323   -1210.2318    202.96728   -1007.2645   -558.80187    14.986051    14.986051    14.986051            0            0            0 
  464600    276.74722   -1195.1343    204.85784   -990.27647    1383.4901    14.886484    14.886484    14.886484            0            0            0 
  464700    313.07756   -1229.4544    231.75081   -997.70361    1827.6192    14.898414    14.898414    14.898414            0            0            0 
  464800    306.32722   -1194.0839    226.75398   -967.32988   -76.055356    15.187378    15.187378    15.187378            0            0            0 
  464900    285.02321   -1182.6865    210.98401   -971.70245   -882.58421    15.423282    15.423282    15.423282            0            0            0 
  465000     283.8332   -1186.2562    210.10313   -976.15309    530.43631    15.334859    15.334859    15.334859            0            0            0 
  465100    291.04186   -1198.3215    215.43923   -982.88226   -461.74039    15.230131    15.230131    15.230131            0            0            0 
  465200    312.65328   -1201.3982    231.43674   -969.96143   -450.89852     15.25467     15.25467     15.25467            0            0            0 
  465300    301.22281   -1212.6043    222.97551    -989.6288    1532.9824    15.096279    15.096279    15.096279            0            0            0 
  465400    281.78607   -1215.0021    208.58777   -1006.4144     577.8018    14.947036    14.947036    14.947036            0            0            0 
  465500    274.22964   -1229.7446    202.99424   -1026.7504     263.3671    14.917327    14.917327    14.917327            0            0            0 
  465600    274.66452    -1251.661    203.31615   -1048.3449    863.94163    14.806551    14.806551    14.806551            0            0            0 
  465700    284.45375    -1251.331    210.56248   -1040.7685   -2254.8959    14.997002    14.997002    14.997002            0            0            0 
  465800    301.95951   -1205.4524    223.52084   -981.93159   -1303.9498    14.925546    14.925546    14.925546            0            0            0 
  465900    321.98667    -1192.226    238.34564   -953.88037   -852.83397    15.077329    15.077329    15.077329            0            0            0 
  466000    326.91814   -1223.0027    241.99608   -981.00659    3652.4052    14.934631    14.934631    14.934631            0            0            0 
  466100    288.67886   -1192.4899    213.69005   -978.79987   -2582.0002    15.279701    15.279701    15.279701            0            0            0 
  466200    297.88202    -1209.399    220.50255   -988.89646    378.29995     14.98366     14.98366     14.98366            0            0            0 
  466300    326.18568   -1220.1432    241.45389   -978.68932    995.30651    14.966166    14.966166    14.966166            0            0            0 
  466400    307.20405   -1201.0905    227.40303   -973.68745    247.51276    15.076723    15.076723    15.076723            0            0            0 
  466500    291.43006   -1186.4751    215.72658    -970.7485     543.5283    15.111583    15.111583    15.111583            0            0            0 
  466600    275.22821   -1185.8557    203.73341   -982.12232   -1157.6104    15.149964    15.149964    15.149964            0            0            0 
  466700    306.55164    -1199.168     226.9201   -972.24792   -335.99731    15.093833    15.093833    15.093833            0            0            0 
  466800    321.80737    -1216.876    238.21292   -978.66311    277.28922    15.024783    15.024783    15.024783            0            0            0 
  466900    281.90442    -1208.979    208.67538   -1000.3036   -149.62988    15.003132    15.003132    15.003132            0            0            0 
  467000    266.24178   -1202.1324    197.08135    -1005.051    1101.4262    15.055104    15.055104    15.055104            0            0            0 
  467100    287.81036   -1215.9441    213.04716    -1002.897    1187.2765    15.086156    15.086156    15.086156            0            0            0 
  467200     274.2555   -1194.6837    203.01338   -991.67029   -989.73027    15.153251    15.153251    15.153251            0            0            0 
  467300    305.16904   -1217.8181    225.89665   -991.92141    2423.3058    14.952461    14.952461    14.952461            0            0            0 
  467400     306.0098   -1195.6213    226.51901   -969.10232     516.5814    15.004245    15.004245    15.004245            0            0            0 
  467500    303.02122   -1209.5707    224.30676   -985.26397    1229.6037     14.90487     14.90487     14.90487            0            0            0 
  467600    287.28575   -1230.4534    212.65882   -1017.7946    201.57944    15.025509    15.025509    15.025509            0            0            0 
  467700    286.89297   -1217.7521    212.36807    -1005.384    969.34034    14.908882    14.908882    14.908882            0            0            0 
  467800    314.96675   -1187.4782    233.14925   -954.32893   -122.30099    14.999484    14.999484    14.999484            0            0            0 
  467900    282.73865   -1189.4651    209.29291   -980.17222   -738.32845    15.098522    15.098522    15.098522            0            0            0 
  468000    329.53741   -1203.2147    243.93496   -959.27972   -110.88687    15.084776    15.084776    15.084776            0            0            0 
  468100    286.08826   -1206.1094     211.7724   -994.33699    1003.2446    14.993393    14.993393    14.993393            0            0            0 
  468200    328.93979    -1208.414    243.49258   -964.92139    878.77869    14.991692    14.991692    14.991692            0            0            0 
  468300     332.1999   -1222.5194    245.90583   -976.61355   -1026.9632    15.001095    15.001095    15.001095            0            0            0 
  468400    288.32515   -1238.0263    213.42822   -1024.5981    1033.9466    14.704761    14.704761    14.704761            0            0            0 
  468500    299.75792    -1255.839    221.89115   -1033.9478   -2005.5114    14.731791    14.731791    14.731791            0            0            0 
  468600    303.05461   -1232.3613    224.33147   -1008.0298   -2300.6621    14.875955    14.875955    14.875955            0            0            0 
  468700     274.1428   -1209.8219    202.92996   -1006.8919    1012.6853    14.875111    14.875111    14.875111            0            0            0 
  468800    311.79014   -1218.9839    230.79782   -988.18612    2111.4362    14.706764    14.706764    14.706764            0            0            0 
  468900    301.68984   -1222.1509    223.32122   -998.82966   -401.64633    14.839819    14.839819    14.839819            0            0            0 
  469000    306.44642   -1230.1517    226.84221   -1003.3095    1412.1979    14.698977    14.698977    14.698977            0            0            0 
  469100    310.64523   -1218.8847    229.95031    -988.9344   -620.36376    14.911649    14.911649    14.911649            0            0            0 
  469200    295.04179   -1238.5681    218.40011    -1020.168   -14.825387    14.849016    14.849016    14.849016            0            0            0 
  469300    312.69175   -1212.9945    231.46522   -981.52928   -102.83257    14.860404    14.860404    14.860404            0            0            0 
  469400    320.32679   -1223.1205    237.11694   -986.00356   -2082.4616    14.928617    14.928617    14.928617            0            0            0 
  469500    328.16622    -1216.263    242.91996   -973.34303    1005.7874    14.885666    14.885666    14.885666            0            0            0 
  469600    284.21766   -1177.5457    210.38772   -967.15797   -553.02982    15.116134    15.116134    15.116134            0            0            0 
  469700    326.16373   -1200.1841    241.43764   -958.74646    1257.7608    14.970544    14.970544    14.970544            0            0            0 
  469800    285.03254   -1186.4342    210.99092   -975.44333   -1135.9743    15.148919    15.148919    15.148919            0            0            0 
  469900    294.67076   -1176.7084    218.12546   -958.58296    566.41378    15.090964    15.090964    15.090964            0            0            0 
  470000    339.36736   -1199.0308    251.21143   -947.81933    376.24334    15.106165    15.106165    15.106165            0            0            0 
  470100     330.1626   -1177.6433    244.39774   -933.24555   -489.71946    15.146123    15.146123    15.146123            0            0            0 
  470200    310.63214    -1197.007    229.94062   -967.06634   -1194.5957    15.204812    15.204812    15.204812            0            0            0 
  470300    296.57117   -1233.6602    219.53221    -1014.128    99.592889    15.102487    15.102487    15.102487            0            0            0 
  470400    298.31327   -1223.6118    220.82177   -1002.7901   -1051.9317    15.174524    15.174524    15.174524            0            0            0 
  470500     294.0076   -1219.4567    217.63457   -1001.8221    1115.4554    15.066822    15.066822    15.066822            0            0            0 
  470600    300.64259    -1184.536    222.54601   -961.99001   -2710.6764    15.450299    15.450299    15.450299            0            0            0 
  470700    287.95636     -1202.23    213.15523   -989.07473    362.28099      15.1386      15.1386      15.1386            0            0            0 
  470800    279.36277   -1206.0992    206.79396    -999.3052    447.58621     15.08991     15.08991     15.08991            0            0            0 
  470900    301.26712   -1213.2298    223.00831    -990.2215    -1054.408    15.129157    15.129157    15.129157            0            0            0 
  471000    300.44152   -1223.0105    222.39717   -1000.6133    1546.5382    15.125695    15.125695    15.125695            0            0            0 
  471100    288.57273   -1222.1557    213.61149   -1008.5442   -230.61733    15.192685    15.192685    15.192685            0            0            0 
  471200     300.5613   -1203.5901    222.48584   -981.10423    1392.4299    15.106775    15.106775    15.106775            0            0            0 
  471300    294.58987   -1204.4919    218.06558   -986.42634    -751.6429    15.138382    15.138382    15.138382            0            0            0 
  471400    284.90834   -1192.0627    210.89898    -981.1637    2966.0663    15.011871    15.011871    15.011871            0            0            0 
  471500    296.35196   -1200.1989    219.36994   -980.82893    1073.5646    15.014772    15.014772    15.014772            0            0            0 
  471600    302.24055   -1205.0573    223.72888   -981.32842    1538.2507    14.892073    14.892073    14.892073            0            0            0 
  471700    277.66746   -1208.4936    205.53903   -1002.9546   -965.38258    14.916295    14.916295    14.916295            0            0            0 
  471800     276.9482   -1214.1194    205.00661   -1009.1128    1618.4034    14.746762    14.746762    14.746762            0            0            0 
  471900    265.35399   -1212.2641    196.42418   -1015.8399   -1483.7655    15.002116    15.002116    15.002116            0            0            0 
  472000    290.20906   -1201.3528    214.82276   -986.53005   -676.40695    14.992543    14.992543    14.992543            0            0            0 
  472100     285.2314   -1214.4259    211.13812   -1003.2878    1890.7742     14.80736     14.80736     14.80736            0            0            0 
  472200    299.54373   -1229.2691     221.7326   -1007.5365   -1011.0603    14.889095    14.889095    14.889095            0            0            0 
  472300      267.431    -1196.934    197.96165   -998.97239    925.99916    14.703565    14.703565    14.703565            0            0            0 
  472400    310.16508   -1205.7581    229.59489   -976.16322    751.28894    14.740726    14.740726    14.740726            0            0            0 
  472500    326.86866   -1231.6827    241.95946   -989.72327   -1566.2478    14.912117    14.912117    14.912117            0            0            0 
  472600     284.2495   -1192.2304    210.41129   -981.81908    113.98982    14.986256    14.986256    14.986256            0            0            0 
  472700    327.91342   -1193.3503    242.73282   -950.61746    143.06428    14.875236    14.875236    14.875236            0            0            0 
  472800    315.16227   -1230.6154    233.29398   -997.32143    879.95328    14.692336    14.692336    14.692336            0            0            0 
  472900    295.08284   -1204.8214    218.43049   -986.39087   -1246.7046    14.973867    14.973867    14.973867            0            0            0 
  473000    309.42936   -1178.3181    229.05029   -949.26786   -767.21291    15.066978    15.066978    15.066978            0            0            0 
  473100    320.76052   -1195.1984      237.438   -957.76035    724.73766    14.951645    14.951645    14.951645            0            0            0 
  473200    315.40629    -1216.107    233.47461   -982.63239    279.41886    15.026333    15.026333    15.026333            0            0            0 
  473300    311.13117   -1205.0026    230.31002   -974.69258    334.31689      15.1485      15.1485      15.1485            0            0            0 
  473400    278.22373    -1195.864    205.95081   -989.91319    482.77262    15.132934    15.132934    15.132934            0            0            0 
  473500    311.22894   -1202.5895     230.3824   -972.20712   -193.92179    15.201317    15.201317    15.201317            0            0            0 
  473600    278.10731   -1179.5721    205.86462    -973.7075    911.98003    15.134663    15.134663    15.134663            0            0            0 
  473700    284.54867   -1176.4141    210.63274   -965.78133    1850.5876    15.002574    15.002574    15.002574            0            0            0 
  473800    311.90413   -1171.8315     230.8822   -940.94935   -728.61355    15.139949    15.139949    15.139949            0            0            0 
  473900    321.64841   -1198.7977    238.09525   -960.70244    1931.9322    14.903615    14.903615    14.903615            0            0            0 
  474000    288.72003   -1198.8404    213.72053   -985.11984   -1874.1523    15.089585    15.089585    15.089585            0            0            0 
  474100    279.00066   -1212.4923    206.52591   -1005.9664   -498.29171    15.121943    15.121943    15.121943            0            0            0 
  474200    306.47477   -1211.1493     226.8632   -984.28614    1102.5819    15.154301    15.154301    15.154301            0            0            0 
  474300    277.67333   -1185.3092    205.54338   -979.76583   -993.93338    15.225295    15.225295    15.225295            0            0            0 
  474400    309.06375   -1203.2893    228.77965   -974.50966    119.44235    15.149261    15.149261    15.149261            0            0            0 
  474500    291.46014   -1183.1026    215.74885   -967.35376   -1421.9359    15.362504    15.362504    15.362504            0            0            0 
  474600    275.26718   -1163.2851    203.76226   -959.52287     463.7866    15.246035    15.246035    15.246035            0            0            0 
  474700    301.21594   -1174.5815    222.97043   -951.61109    174.78977    15.237953    15.237953    15.237953            0            0            0 
  474800    293.66411   -1166.4722     217.3803   -949.09186    463.93431    15.084578    15.084578    15.084578            0            0            0 
  474900    307.07663   -1197.0992    227.30871    -969.7905   -368.97104    15.002813    15.002813    15.002813            0            0            0 
  475000    311.07851   -1189.4475    230.27105   -959.17649    1138.7112    14.931458    14.931458    14.931458            0            0            0 
  475100     302.1036   -1209.2863     223.6275   -985.65881     1703.448    14.770446    14.770446    14.770446            0            0            0 
  475200    331.43518   -1213.7794    245.33975   -968.43963   -3796.1601    15.070705    15.070705    15.070705            0            0            0 
  475300    309.37489   -1214.3876    229.00997   -985.37767    127.53209    14.945897    14.945897    14.945897            0            0            0 
  475400    272.27396   -1204.1059    201.54658   -1002.5593   -1485.6166    15.196648    15.196648    15.196648            0            0            0 
  475500    271.29711   -1212.7451    200.82348   -1011.9217    1782.5194    15.133808    15.133808    15.133808            0            0            0 
  475600    308.10449   -1215.7549    228.06957   -987.68532   -1219.9811    15.267122    15.267122    15.267122            0            0            0 
  475700    303.72189   -1195.3282    224.82542   -970.50278    261.31643    15.046255    15.046255    15.046255            0            0            0 
  475800    296.27819   -1196.4728    219.31534   -977.15747    2255.2693    14.957154    14.957154    14.957154            0            0            0 
  475900    300.50578   -1213.3817    222.44475   -990.93696     424.2915    15.103954    15.103954    15.103954            0            0            0 
  476000    295.24709   -1209.6146    218.55208   -991.06252    -4.890757    15.152187    15.152187    15.152187            0            0            0 
  476100    278.29891   -1199.4274    206.00645   -993.42096    -995.5879    15.199169    15.199169    15.199169            0            0            0 
  476200    285.23536   -1196.8791    211.14105   -985.73808    878.33431    15.077956    15.077956    15.077956            0            0            0 
  476300    312.82642   -1188.6301    231.56491   -957.06517   -786.05944    15.134584    15.134584    15.134584            0            0            0 
  476400    290.91855   -1203.4672    215.34794   -988.11927    957.12865    14.992604    14.992604    14.992604            0            0            0 
  476500    297.70282   -1199.5033    220.36989   -979.13341    209.84895    15.153327    15.153327    15.153327            0            0            0 
  476600    294.88552   -1205.9868    218.28444   -987.70233   -891.63458    15.076446    15.076446    15.076446            0            0            0 
  476700    297.95759   -1216.4519    220.55849   -995.89339   -2339.4132    14.978674    14.978674    14.978674            0            0            0 
  476800    303.11582   -1183.6996    224.37679   -959.32277    1514.2324    14.792127    14.792127    14.792127            0            0            0 
  476900    324.28467   -1170.1821     240.0467   -930.13541   -565.93783    15.064559    15.064559    15.064559            0            0            0 
  477000     319.2598    -1193.932    236.32711    -957.6049     1304.535    14.989112    14.989112    14.989112            0            0            0 
  477100    280.06685   -1157.2596    207.31514   -949.94444   -3626.2704    15.365751    15.365751    15.365751            0            0            0 
  477200    333.06417   -1154.9269    246.54559   -908.38129    2052.5557    15.060276    15.060276    15.060276            0            0            0 
  477300    313.77477   -1157.7432    232.26691   -925.47633    1543.7909    15.036103    15.036103    15.036103            0            0            0 
  477400    324.16463    -1200.667    239.95784   -960.70915    189.97175    14.936543    14.936543    14.936543            0            0            0 
  477500    299.53292   -1205.0698     221.7246   -983.34523    175.65377    14.830372    14.830372    14.830372            0            0            0 
  477600    298.46042   -1212.1037     220.9307   -991.17296    220.24774    14.806612    14.806612    14.806612            0            0            0 
  477700    310.71593   -1202.7922    230.00265   -972.78956    539.26155    14.882296    14.882296    14.882296            0            0            0 
  477800    271.70256   -1222.3384    201.12361   -1021.2148    448.88788    14.864426    14.864426    14.864426            0            0            0 
  477900    294.99715   -1227.5683    218.36706   -1009.2012   -178.70467    14.992153    14.992153    14.992153            0            0            0 
  478000    297.04058   -1245.9711    219.87969   -1026.0914      792.461    14.840298    14.840298    14.840298            0            0            0 
  478100    298.93276   -1224.9094    221.28034    -1003.629    410.93984    14.893897    14.893897    14.893897            0            0            0 
  478200    296.59131   -1225.6118    219.54712   -1006.0646   -565.83292    15.121262    15.121262    15.121262            0            0            0 
  478300     292.0883   -1196.7273    216.21383   -980.51347     349.6591    15.086956    15.086956    15.086956            0            0            0 
  478400      294.897   -1193.1753    218.29293   -974.88239    1270.8042     15.05542     15.05542     15.05542            0            0            0 
  478500    332.37025   -1224.3643    246.03192   -978.33234   -209.93285    15.026415    15.026415    15.026415            0            0            0 
  478600    324.44967   -1220.1821    240.16884   -980.01328   -664.15752    15.030703    15.030703    15.030703            0            0            0 
  478700    286.76961   -1206.1116    212.27676   -993.83485    -1770.045    15.246887    15.246887    15.246887            0            0            0 
  478800    306.36693   -1245.3811    226.78337   -1018.5978    2082.7073    15.013757    15.013757    15.013757            0            0            0 
  478900    278.65406   -1204.8619    206.26935   -998.59258    531.12923    15.201301    15.201301    15.201301            0            0            0 
  479000    301.61805   -1225.6254    223.26808   -1002.3574   -1140.2723    15.266087    15.266087    15.266087            0            0            0 
  479100     281.6712   -1219.1607    208.50274    -1010.658   -157.77966    15.186261    15.186261    15.186261            0            0            0 
  479200    335.38868   -1220.6885    248.26627   -972.42226   -1237.8713     14.99184     14.99184     14.99184            0            0            0 
  479300    339.48012     -1203.24    251.29489   -951.94515   -1621.4811    14.982286    14.982286    14.982286            0            0            0 
  479400    315.05937   -1213.5109    233.21782   -980.29305   -146.13697    15.017021    15.017021    15.017021            0            0            0 
  479500    320.78582   -1216.8466    237.45673   -979.38989   -834.42018    14.922741    14.922741    14.922741            0            0            0 
  479600    275.62421   -1227.2039    204.02655   -1023.1773    698.00926    14.815016    14.815016    14.815016            0            0            0 
  479700    262.39545   -1248.0559    194.23416   -1053.8217    1495.8779    14.792661    14.792661    14.792661            0            0            0 
  479800    285.15786   -1234.4971    211.08368   -1023.4134    452.87652    14.876458    14.876458    14.876458            0            0            0 
  479900    298.30132   -1228.1072    220.81292   -1007.2942     782.5313    14.940157    14.940157    14.940157            0            0            0 
  480000    274.52137   -1196.5097    203.21018    -993.2995   -105.16211    14.923619    14.923619    14.923619            0            0            0 
  480100    305.36662   -1207.7124     226.0429   -981.66953   -478.78831    15.038791    15.038791    15.038791            0            0            0 
  480200    318.45204   -1208.8107    235.72919   -973.08153     1133.006    14.949598    14.949598    14.949598            0            0            0 
  480300    291.78661   -1196.0394    215.99052   -980.04885   -1084.9733    14.968848    14.968848    14.968848            0            0            0 
  480400    311.70996   -1210.1588    230.73846   -979.42037    504.91195    14.935317    14.935317    14.935317            0            0            0 
  480500     320.2442   -1216.1015     237.0558   -979.04569   -67.423386    14.947327    14.947327    14.947327            0            0            0 
  480600    305.67618   -1205.5915    226.27205    -979.3194    822.98906    14.962214    14.962214    14.962214            0            0            0 
  480700    294.43414   -1212.4274    217.95031   -994.47712   -1095.9358    15.031881    15.031881    15.031881            0            0            0 
  480800    303.56167   -1213.6962    224.70682   -988.98937    486.81823    14.913161    14.913161    14.913161            0            0            0 
  480900    317.35534   -1222.1535    234.91737   -987.23613   -202.50593    14.967277    14.967277    14.967277            0            0            0 
  481000    296.35815   -1192.1197    219.37453   -972.74514   -279.22863     15.11761     15.11761     15.11761            0            0            0 
  481100    319.40981   -1182.3503    236.43816   -945.91218    1372.6471    14.901082    14.901082    14.901082            0            0            0 
  481200    298.26267   -1216.4618    220.78431   -995.67751    616.40219    14.923223    14.923223    14.923223            0            0            0 
  481300    284.32227   -1179.0787    210.46515   -968.61352    210.53223    14.956764    14.956764    14.956764            0            0            0 
  481400    279.63619   -1178.8342    206.99635   -971.83786    1709.4953    14.975698    14.975698    14.975698            0            0            0 
  481500    297.61346   -1192.2415    220.30375   -971.93778   -1886.2909    15.076101    15.076101    15.076101            0            0            0 
  481600     292.4427   -1202.9544    216.47617   -986.47826    -1648.424    15.076706    15.076706    15.076706            0            0            0 
  481700    276.93579   -1202.3822    204.99743   -997.38479     24.48777     14.97101     14.97101     14.97101            0            0            0 
  481800    288.54434   -1201.9426    213.59047   -988.35213   -842.01975    14.932652    14.932652    14.932652            0            0            0 
  481900    308.67112   -1219.3912    228.48901   -990.90217    292.77388    14.973453    14.973453    14.973453            0            0            0 
  482000    285.44266   -1203.4942    211.29451    -992.1997    213.28428    15.160374    15.160374    15.160374            0            0            0 
  482100    326.89079   -1179.4881    241.97584   -937.51229    1389.3272    15.135657    15.135657    15.135657            0            0            0 
  482200    328.68599   -1181.2759    243.30471   -937.97114     -1566.88     15.25328     15.25328     15.25328            0            0            0 
  482300    319.01274   -1195.4508    236.14424   -959.30655    -242.6462    15.112125    15.112125    15.112125            0            0            0 
  482400    295.38338   -1198.3578    218.65297   -979.70482    975.27243    15.133792    15.133792    15.133792            0            0            0 
  482500    299.02422    -1220.889    221.34804   -999.54097   -330.34068    15.057393    15.057393    15.057393            0            0            0 
  482600    301.72548   -1215.4323    223.34761    -992.0847    5.5821501    14.906567    14.906567    14.906567            0            0            0 
  482700    314.75732   -1200.1739    232.99423   -967.17965    1400.5528    14.792927    14.792927    14.792927            0            0            0 
  482800    311.27237   -1200.5712    230.41455   -970.15667    585.71322    14.877332    14.877332    14.877332            0            0            0 
  482900    313.35662   -1201.4053    231.95738   -969.44792   -543.05438    14.894404    14.894404    14.894404            0            0            0 
  483000    288.47875    -1212.939    213.54192   -999.39711    768.16333    14.851785    14.851785    14.851785            0            0            0 
  483100    310.96893   -1207.3696    230.18993   -977.17964    648.13896    14.848147    14.848147    14.848147            0            0            0 
  483200    320.41427   -1214.9563    237.18169   -977.77464    2336.2459    14.801888    14.801888    14.801888            0            0            0 
  483300    298.82395   -1201.2354     221.1998   -980.03561   -1070.0147    14.833819    14.833819    14.833819            0            0            0 
  483400    307.40708   -1205.2877    227.55332   -977.73441   -504.17562    14.729255    14.729255    14.729255            0            0            0 
  483500    284.49153   -1212.2365    210.59044   -1001.6461   -1187.0116     14.92478     14.92478     14.92478            0            0            0 
  483600    300.67988   -1205.3348    222.57362   -982.76118      465.815    15.008592    15.008592    15.008592            0            0            0 
  483700    306.69107   -1210.5522    227.02331    -983.5289    853.04339    14.983966    14.983966    14.983966            0            0            0 
  483800    302.51107   -1218.1556    223.92913   -994.22652    275.68036    14.951349    14.951349    14.951349            0            0            0 
  483900    327.27833   -1215.6122    242.26271   -973.34949    125.90264    14.741234    14.741234    14.741234            0            0            0 
  484000    295.12619   -1217.6115    218.46258   -999.14895   -910.13572    14.828077    14.828077    14.828077            0            0            0 
  484100    289.31258   -1239.5936    214.15915   -1025.4344    282.21153    14.696802    14.696802    14.696802            0            0            0 
  484200    315.09046   -1254.4986    233.24083   -1021.2578     2074.857    14.555108    14.555108    14.555108            0            0            0 
  484300    306.22671   -1210.2551    226.67958   -983.57554   -3527.4445    14.962524    14.962524    14.962524            0            0            0 
  484400    296.15804   -1214.3068     219.2264   -995.08037     1595.518    14.635189    14.635189    14.635189            0            0            0 
  484500    312.13979   -1229.3847    231.05664   -998.32802   -650.45939    14.781727    14.781727    14.781727            0            0            0 
  484600    287.70216   -1196.0581    212.96706   -983.09106    334.50318    14.814544    14.814544    14.814544            0            0            0 
  484700    333.98443   -1212.8161    247.22679   -965.58929    1176.2871    14.801357    14.801357    14.801357            0            0            0 
  484800    299.61421   -1193.8006    221.78477   -972.01584    -1911.387    15.184709    15.184709    15.184709            0            0            0 
  484900     312.8156   -1221.3525     231.5569   -989.79558    2739.5657    14.903318    14.903318    14.903318            0            0            0 
  485000    286.28837   -1198.7177    211.92053   -986.79715    1761.6589    14.955728    14.955728    14.955728            0            0            0 
  485100    320.55617   -1205.3316    237.28674    -968.0449    1344.7785    14.961206    14.961206    14.961206            0            0            0 
  485200    322.02732   -1207.4875    238.37573    -969.1118    827.44394    14.912176    14.912176    14.912176            0            0            0 
  485300    262.76191    -1191.594    194.50543   -997.08858   -190.85333    14.910425    14.910425    14.910425            0            0            0 
  485400    308.03546   -1222.0372    228.01847   -994.01875    79.209088    14.824157    14.824157    14.824157            0            0            0 
  485500     308.7665    -1213.344    228.55962    -984.7844   -1394.8042    14.896836    14.896836    14.896836            0            0            0 
  485600    287.13876   -1232.4675    212.55001   -1019.9175     1557.004    14.694559    14.694559    14.694559            0            0            0 
  485700    304.33315   -1223.9473    225.27789   -998.66943    -1779.918    14.876866    14.876866    14.876866            0            0            0 
  485800    300.23229   -1184.5794     222.2423    -962.3371    187.99446    15.047678    15.047678    15.047678            0            0            0 
  485900    327.36206    -1184.052    242.32469   -941.72735   -288.28842    15.069474    15.069474    15.069474            0            0            0 
  486000    296.65503   -1168.8687    219.59428   -949.27441    1463.1591    14.955124    14.955124    14.955124            0            0            0 
  486100    289.55263   -1156.4868    214.33684      -942.15    829.26392    14.935173    14.935173    14.935173            0            0            0 
  486200    297.67182   -1187.8196    220.34695   -967.47267   -135.35391    15.019633    15.019633    15.019633            0            0            0 
  486300    292.63936   -1192.7473    216.62175   -976.12559    1326.1726    15.089512    15.089512    15.089512            0            0            0 
  486400    298.72704   -1218.8985    221.12806    -997.7704    2507.9148    14.929355    14.929355    14.929355            0            0            0 
  486500    274.41019   -1212.9633    203.12789   -1009.8354   -2128.3488    15.177106    15.177106    15.177106            0            0            0 
  486600    301.48913   -1226.9008    223.17266   -1003.7282   -409.53066    15.038094    15.038094    15.038094            0            0            0 
  486700    306.02725   -1215.9376    226.53193   -989.40564    673.10868    15.025919    15.025919    15.025919            0            0            0 
  486800    271.91271   -1200.6608    201.27917   -999.38161    -287.2037    15.126684    15.126684    15.126684            0            0            0 
  486900    275.04655   -1204.7899    203.59895    -1001.191    1879.0903    14.885975    14.885975    14.885975            0            0            0 
  487000    295.21777   -1208.7876    218.53038   -990.25726   -643.69168    15.100374    15.100374    15.100374            0            0            0 
  487100    326.23756   -1200.3962    241.49229   -958.90387   -413.22845    15.127476    15.127476    15.127476            0            0            0 
  487200    309.88758   -1208.8068    229.38948   -979.41728    220.39433     15.02126     15.02126     15.02126            0            0            0 
  487300    307.81935   -1216.0415     227.8585   -988.18302   -413.22624    15.128485    15.128485    15.128485            0            0            0 
  487400    279.99559   -1221.7896    207.26239   -1014.5272    31.053649    15.048122    15.048122    15.048122            0            0            0 
  487500    301.13141   -1202.8856    222.90786    -979.9777   -1914.9948    15.308544    15.308544    15.308544            0            0            0 
  487600    291.19955   -1218.4894    215.55595   -1002.9335    418.20354    15.079606    15.079606    15.079606            0            0            0 
  487700    293.02492   -1226.0829    216.90716   -1009.1757    985.79748     14.93565     14.93565     14.93565            0            0            0 
  487800    319.30605   -1200.0992    236.36135   -963.73783    857.57123    14.886525    14.886525    14.886525            0            0            0 
  487900    322.45855   -1191.8153    238.69494    -953.1204   -2140.5524    15.049854    15.049854    15.049854            0            0            0 
  488000    299.80662   -1202.3467     221.9272   -980.41955    546.79927    14.995087    14.995087    14.995087            0            0            0 
  488100     301.6463   -1212.2655      223.289   -988.97646   -1664.4889    15.030063    15.030063    15.030063            0            0            0 
  488200    276.32399   -1230.2526    204.54455   -1025.7081    756.81587    14.834158    14.834158    14.834158            0            0            0 
  488300    295.06058   -1239.0875    218.41402   -1020.6734   -1290.3383    14.993671    14.993671    14.993671            0            0            0 
  488400    339.58931   -1223.6586    251.37572   -972.28283    -2208.469    14.984984    14.984984    14.984984            0            0            0 
  488500      305.356   -1222.9873    226.03504   -996.95222   -173.60414    15.063504    15.063504    15.063504            0            0            0 
  488600    315.80796   -1197.8933    233.77195   -964.12137   -280.71333    15.066842    15.066842    15.066842            0            0            0 
  488700    298.06132   -1168.0949    220.63527   -947.45968    1024.7335    15.017181    15.017181    15.017181            0            0            0 
  488800    279.25739   -1145.0534    206.71595   -938.33741    162.79671    15.186373    15.186373    15.186373            0            0            0 
  488900    349.82736   -1171.8708    258.95428   -912.91648   -267.80133    15.069105    15.069105    15.069105            0            0            0 
  489000    292.67302   -1175.1257    216.64666   -958.47899    308.92904     15.08657     15.08657     15.08657            0            0            0 
  489100    302.57147    -1186.227    223.97384   -962.25314    1625.5683    14.967522    14.967522    14.967522            0            0            0 
  489200    299.73019   -1189.4392    221.87063    -967.5686    2246.3776    14.979717    14.979717    14.979717            0            0            0 
  489300    311.00276   -1199.6013    230.21497   -969.38634   -1943.8774    15.187121    15.187121    15.187121            0            0            0 
  489400    296.79592   -1178.8571    219.69858   -959.15849   -98.306428    15.019379    15.019379    15.019379            0            0            0 
  489500    297.18838     -1198.65    219.98909   -978.66088    1980.6862    14.849672    14.849672    14.849672            0            0            0 
  489600    308.54331   -1201.1151     228.3944   -972.72069   -542.49297    14.885423    14.885423    14.885423            0            0            0 
  489700    293.08498   -1213.4596    216.95162   -996.50795   -1013.4426     14.83817     14.83817     14.83817            0            0            0 
  489800    304.78418   -1200.3201    225.61176    -974.7083   -500.13206    14.951881    14.951881    14.951881            0            0            0 
  489900    328.33223     -1218.52    243.04285   -975.47719   -769.93869    14.963937    14.963937    14.963937            0            0            0 
  490000    301.78788   -1210.2714     223.3938   -986.87764   -140.46702    14.823758    14.823758    14.823758            0            0            0 
  490100    285.95045   -1182.3658    211.67039   -970.69542   -652.60852     14.95275     14.95275     14.95275            0            0            0 
  490200    325.21936   -1201.0618    240.73859   -960.32316   -786.40913     15.09616     15.09616     15.09616            0            0            0 
  490300    282.89029   -1182.3118    209.40515   -972.90666   -2598.7817    15.286538    15.286538    15.286538            0            0            0 
  490400    305.10032   -1199.1995    225.84578   -973.35368    49.187953    15.104521    15.104521    15.104521            0            0            0 
  490500    334.75054   -1163.9388     247.7939   -916.14494   -706.10551    15.258951    15.258951    15.258951            0            0            0 
  490600    321.91771   -1150.1179    238.29459   -911.82329   -417.88376    15.268415    15.268415    15.268415            0            0            0 
  490700    338.95872   -1159.3271    250.90893   -908.41816    1866.5351    15.183607    15.183607    15.183607            0            0            0 
  490800    301.15434   -1177.2851    222.92483   -954.36029   -1058.4596    15.378642    15.378642    15.378642            0            0            0 
  490900    301.65464     -1176.25    223.29517   -952.95482   -1852.8123    15.361477    15.361477    15.361477            0            0            0 
  491000    325.40625    -1195.462    240.87693   -954.58508    909.95015    15.141963    15.141963    15.141963            0            0            0 
  491100    292.72254   -1184.3607    216.68332   -967.67738   -2127.3083    15.226006    15.226006    15.226006            0            0            0 
  491200    282.70693   -1201.0707    209.26942   -991.80123   -615.37829    15.104309    15.104309    15.104309            0            0            0 
  491300    295.15932   -1194.7255    218.48711   -976.23839    557.54901    15.184191    15.184191    15.184191            0            0            0 
  491400    279.22953   -1192.4564    206.69533   -985.76111    133.33944    15.189906    15.189906    15.189906            0            0            0 
  491500    297.32352   -1192.0563    220.08912   -971.96718   -542.62982    15.124567    15.124567    15.124567            0            0            0 
  491600    303.52563   -1188.0584    224.68014   -963.37826    1151.0344     15.08081     15.08081     15.08081            0            0            0 
  491700      282.645    -1195.001    209.22358   -985.77742   -1295.5103    15.072933    15.072933    15.072933            0            0            0 
  491800    284.26167    -1208.685     210.4203   -998.26475   -5.8565739    14.894619    14.894619    14.894619            0            0            0 
  491900    316.46119   -1223.2862    234.25549   -989.03071    181.88208     14.88104     14.88104     14.88104            0            0            0 
  492000    285.61589   -1187.9053    211.42274   -976.48257   -831.58539    15.137238    15.137238    15.137238            0            0            0 
  492100    320.22842   -1203.7721    237.04412   -966.72797    988.59843    14.985276    14.985276    14.985276            0            0            0 
  492200    312.69503    -1193.441    231.46765   -961.97334   -1736.1099    15.370095    15.370095    15.370095            0            0            0 
  492300    311.35343    -1200.571    230.47455    -970.0965   -506.31943    15.319002    15.319002    15.319002            0            0            0 
  492400    288.67732   -1198.8467    213.68891   -985.15777    638.13682    15.226492    15.226492    15.226492            0            0            0 
  492500    284.82097   -1189.7515    210.83431   -978.91718   -109.27242    15.243656    15.243656    15.243656            0            0            0 
  492600    314.44143   -1191.0753    232.76039   -958.31495     262.4226    15.209442    15.209442    15.209442            0            0            0 
  492700    300.90078   -1180.3887    222.73714    -957.6516   -676.51786    15.396592    15.396592    15.396592            0            0            0 
  492800    300.54604   -1187.7502    222.47455   -965.27565   -170.83921    15.406211    15.406211    15.406211            0            0            0 
  492900    311.86407   -1201.8132    230.85254   -970.96066    766.03023    15.206022    15.206022    15.206022            0            0            0 
  493000    277.37882   -1185.1263    205.32537    -979.8009   -138.92696    15.152408    15.152408    15.152408            0            0            0 
  493100     287.5416   -1182.2189    212.84821   -969.37072   -595.46225    15.182307    15.182307    15.182307            0            0            0 
  493200    274.34108   -1189.5334    203.07673    -986.4567   -499.95182    14.935629    14.935629    14.935629            0            0            0 
  493300    313.25512   -1209.8841    231.88225   -978.00182    700.15692    14.823994    14.823994    14.823994            0            0            0 
  493400    311.43602   -1208.7708    230.53568   -978.23516   -1214.9116    14.896702    14.896702    14.896702            0            0            0 
  493500    311.43014    -1204.116    230.53134   -973.58465    540.41375    14.794326    14.794326    14.794326            0            0            0 
  493600    288.97322   -1206.4847    213.90794    -992.5768   -25.012067    14.743065    14.743065    14.743065            0            0            0 
  493700    299.16044   -1205.9587    221.44888   -984.50978   -1157.7943    14.823295    14.823295    14.823295            0            0            0 
  493800    277.36441    -1228.541    205.31471   -1023.2263    1141.9129    14.847316    14.847316    14.847316            0            0            0 
  493900    302.55644   -1238.0066    223.96271   -1014.0439    -1787.199    14.926954    14.926954    14.926954            0            0            0 
  494000    280.73264   -1229.8902    207.80798   -1022.0822    67.525815    14.764033    14.764033    14.764033            0            0            0 
  494100    297.44937   -1237.5418    220.18228   -1017.3596   -1263.4058    14.824297    14.824297    14.824297            0            0            0 
  494200    264.22735   -1203.2607     195.5902   -1007.6705   -714.15348    14.819231    14.819231    14.819231            0            0            0 
  494300    287.92487   -1219.2395    213.13192   -1006.1076   -650.18673    14.669715    14.669715    14.669715            0            0            0 
  494400    292.77684   -1216.9737    216.72352   -1000.2502   -374.39433    14.724784    14.724784    14.724784            0            0            0 
  494500    291.20709   -1227.6349    215.56153   -1012.0734   -409.06279    14.817365    14.817365    14.817365            0            0            0 
  494600    292.91033   -1204.1992    216.82233   -987.37691   -113.95932    14.877229    14.877229    14.877229            0            0            0 
  494700    276.28714   -1216.0498    204.51727   -1011.5326     1297.975    14.789197    14.789197    14.789197            0            0            0 
  494800    304.28041   -1225.3032    225.23886   -1000.0643   -206.25709    14.980277    14.980277    14.980277            0            0            0 
  494900    272.10775   -1203.1704    201.42354   -1001.7468   -708.39894    15.120593    15.120593    15.120593            0            0            0 
  495000    298.44513   -1218.0764    220.91938   -997.15701   -1493.2269    15.117001    15.117001    15.117001            0            0            0 
  495100    283.88622   -1219.1924    210.14237   -1009.0501    388.85426    15.017072    15.017072    15.017072            0            0            0 
  495200    289.74991   -1211.5502    214.48288   -997.06732    105.07882    15.002149    15.002149    15.002149            0            0            0 
  495300    320.14653   -1218.9521    236.98351   -981.96861    1084.5927    14.831021    14.831021    14.831021            0            0            0 
  495400    296.32827   -1201.4239    219.35241   -982.07148   -2579.7797    15.054561    15.054561    15.054561            0            0            0 
  495500    309.53604    -1198.711    229.12926   -969.58177   -113.78761    14.994343    14.994343    14.994343            0            0            0 
  495600     285.5724   -1229.8157    211.39054   -1018.4252   -440.31056    14.972406    14.972406    14.972406            0            0            0 
  495700    313.43279   -1222.2429    232.01376   -990.22914   -776.78897    15.017583    15.017583    15.017583            0            0            0 
  495800     299.2604   -1216.0894    221.52287   -994.56653    1270.1766    14.849604    14.849604    14.849604            0            0            0 
  495900     314.0832   -1199.0018    232.49522   -966.50662   -13.042663    14.866838    14.866838    14.866838            0            0            0 
  496000    309.52468   -1194.4556    229.12084   -965.33481    1761.0704    14.856535    14.856535    14.856535            0            0            0 
  496100     296.2956   -1186.5669    219.32822   -967.23869   -1075.7256    15.105424    15.105424    15.105424            0            0            0 
  496200    278.75278   -1232.4742    206.34243   -1026.1318    1330.2652    14.936201    14.936201    14.936201            0            0            0 
  496300    290.43944   -1202.2258    214.99329    -987.2325   -1696.1991     15.24999     15.24999     15.24999            0            0            0 
  496400    308.45888   -1184.8314    228.33191   -956.49952   -1063.5273    15.372138    15.372138    15.372138            0            0            0 
  496500    261.40055   -1181.5107     193.4977   -988.01302   -83.515533    15.156153    15.156153    15.156153            0            0            0 
  496600    296.99069   -1197.5163    219.84275   -977.67355    990.33426    14.966397    14.966397    14.966397            0            0            0 
  496700    286.32241   -1197.2275    211.94572   -985.28174     110.0965    15.121858    15.121858    15.121858            0            0            0 
  496800    308.74746   -1201.5739    228.54552   -973.02841    2421.3281    15.091574    15.091574    15.091574            0            0            0 
  496900    311.36639   -1190.1931    230.48414   -959.70894    547.64548     15.11595     15.11595     15.11595            0            0            0 
  497000    323.84198   -1205.1903    239.71901   -965.47133   -260.63444    15.114259    15.114259    15.114259            0            0            0 
  497100    303.40622   -1221.9657    224.59175   -997.37397   -163.48619    15.208119    15.208119    15.208119            0            0            0 
  497200     298.9814   -1238.1525    221.31635   -1016.8361   -596.08012    15.126904    15.126904    15.126904            0            0            0 
  497300    260.83826   -1235.3068    193.08148   -1042.2253    373.46805    15.024497    15.024497    15.024497            0            0            0 
  497400    282.02778    -1208.861    208.76669   -1000.0943   -476.59647    15.034692    15.034692    15.034692            0            0            0 
  497500    314.00057   -1187.4481    232.43405   -955.01407   -2252.6866    15.177661    15.177661    15.177661            0            0            0 
  497600    293.16684   -1186.7321    217.01221   -969.71988    497.24325     15.17059     15.17059     15.17059            0            0            0 
  497700    329.72932   -1202.5457    244.07702   -958.46867   -999.20215    15.116874    15.116874    15.116874            0            0            0 
  497800    287.58105   -1193.6266    212.87742   -980.74914   -6.0978062    15.016851    15.016851    15.016851            0            0            0 
  497900    282.92264   -1202.7218    209.42909   -993.29266    221.06832    14.874061    14.874061    14.874061            0            0            0 
  498000    283.57224   -1207.3583    209.90996   -997.44835    948.31323    14.923488    14.923488    14.923488            0            0            0 
  498100    323.75256    -1205.189    239.65281   -965.53618   -696.76424    15.012863    15.012863    15.012863            0            0            0 
  498200    277.38802    -1214.173    205.33218   -1008.8408   -754.48265    15.020035    15.020035    15.020035            0            0            0 
  498300    293.61674   -1239.1824    217.34524   -1021.8372    1083.8513    14.862883    14.862883    14.862883            0            0            0 
  498400    295.13665   -1223.6675    218.47033   -1005.1972    242.03884    14.905225    14.905225    14.905225            0            0            0 
  498500    292.06785   -1227.0406     216.1987   -1010.8419    899.95466    14.896423    14.896423    14.896423            0            0            0 
  498600    290.63609   -1230.5743    215.13886   -1015.4355    749.05842    15.081077    15.081077    15.081077            0            0            0 
  498700    297.92474   -1217.5544    220.53417   -997.02023   -274.76772    15.050572    15.050572    15.050572            0            0            0 
  498800    304.80121   -1227.4582    225.62437   -1001.8339   -431.17632    14.809915    14.809915    14.809915            0            0            0 
  498900     331.8078   -1244.2595    245.61558   -998.64392    884.06069    14.779746    14.779746    14.779746            0            0            0 
  499000    302.99575   -1213.6334     224.2879   -989.34546   -1287.6633    14.981411    14.981411    14.981411            0            0            0 
  499100    331.72822   -1214.3108    245.55667    -968.7541    425.59254    14.953048    14.953048    14.953048            0            0            0 
  499200     298.7298   -1181.7965     221.1301   -960.66644    4113.0839    14.746101    14.746101    14.746101            0            0            0 
  499300    306.12337   -1195.8611    226.60308   -969.25805   -1058.3349    14.948849    14.948849    14.948849            0            0            0 
  499400    305.81786   -1193.6198    226.37693   -967.24283    934.12813    14.738044    14.738044    14.738044            0            0            0 
  499500     328.4595    -1237.115    243.13705   -993.97793   -1378.0302     14.80984     14.80984     14.80984            0            0            0 
  499600    309.10353    -1233.362    228.80909    -1004.553    449.95913    14.709505    14.709505    14.709505            0            0            0 
  499700    289.03117   -1210.3137    213.95084   -996.36287    2524.2743    14.760449    14.760449    14.760449            0            0            0 
  499800    283.75982   -1198.7765    210.04881   -988.72769   -159.75398    14.945074    14.945074    14.945074            0            0            0 
  499900    314.87992   -1212.2882    233.08498   -979.20318    720.17869    14.823953    14.823953    14.823953            0            0            0 
SHAKE stats (type/ave/delta) on step 500000
  1 0.95715 6.16704e-06 636
  500000    275.05198   -1203.1705    203.60297    -999.5675    259.95616    14.780397    14.780397    14.780397            0            0            0 
Loop time of 668.075 on 1 procs for 500000 steps with 320 atoms

Performance: 129.327 ns/day, 0.186 hours/ns, 748.419 timesteps/s
99.1% CPU use with 1 MPI tasks x no OpenMP threads

MPI task timing breakdown:
Section |  min time  |  avg time  |  max time  |%varavg| %total
---------------------------------------------------------------
Pair    | 281.8      | 281.8      | 281.8      |   0.0 | 42.18
Bond    | 8.2625     | 8.2625     | 8.2625     |   0.0 |  1.24
Kspace  | 205.58     | 205.58     | 205.58     |   0.0 | 30.77
Neigh   | 63.285     | 63.285     | 63.285     |   0.0 |  9.47
Comm    | 10.841     | 10.841     | 10.841     |   0.0 |  1.62
Output  | 6.1801     | 6.1801     | 6.1801     |   0.0 |  0.93
Modify  | 89.896     | 89.896     | 89.896     |   0.0 | 13.46
Other   |            | 2.231      |            |       |  0.33

Nlocal:    320 ave 320 max 320 min
Histogram: 1 0 0 0 0 0 0 0 0 0
Nghost:    2039 ave 2039 max 2039 min
Histogram: 1 0 0 0 0 0 0 0 0 0
Neighs:    22679 ave 22679 max 22679 min
Histogram: 1 0 0 0 0 0 0 0 0 0

Total # of neighbors = 22679
Ave neighs/atom = 70.8719
Ave special neighs/atom = 1.9875
Neighbor list builds = 39099
Dangerous builds = 2460

unfix           1
unfix           2
unfix           3
unfix           4

# Write final configuration
write_data	data.final
System init for write_data ...
PPPM initialization ...
  using 12-bit tables for long-range coulomb (src/kspace.cpp:332)
  G vector (1/distance) = 0.409377
  grid = 8 8 8
  stencil order = 5
  estimated absolute RMS force accuracy = 0.69825
  estimated relative force accuracy = 0.00210276
  using double precision KISS FFT
  3d grid and FFT values/proc = 3375 512
Neighbor list info ...
  update every 1 steps, delay 10 steps, check yes
  max neighbors/atom: 2000, page size: 100000
  master list distance cutoff = 7
  ghost atom cutoff = 7
  binsize = 3.5, bins = 5 5 5
  3 neighbor lists, perpetual/occasional/extra = 3 0 0
  (1) pair lj/cut/coul/long, perpetual, skip from (3)
      attributes: half, newton on
      pair build: skip
      stencil: none
      bin: none
  (2) pair buck/coul/long, perpetual, skip from (3)
      attributes: half, newton on
      pair build: skip
      stencil: none
      bin: none
  (3) neighbor class addition, perpetual
      attributes: half, newton on
      pair build: half/bin/newton
      stencil: half/bin/3d/newton
      bin: standard

Total wall time: 0:11:08
